%chk=G:\tree\Gitlib\jade\src\ci_overlap\interface_gaussian_oniom\test\model\mix.chk
# oniom(cam-b3lyp/6-31g(d):uff)=embed geom=connectivity

Built with Packmol

0 2 1 1 1 1
 C-C_2(PDBName=C,ResName=2,ResNum=1)                 0    0.00000000    0.00000000   -0.63800000 H
 H-H_(PDBName=H,ResName=2,ResNum=1)                  0    0.00000000    0.94400000   -1.17700000 H
 H-H_(PDBName=H,ResName=2,ResNum=1)                  0    0.00000000   -0.94400000   -1.17700000 H
 N-N_2(PDBName=N,ResName=2,ResNum=1)                 0    0.00000000    0.00000000    0.63700000 H
 H-H_(PDBName=H,ResName=2,ResNum=1)                  0    0.00000000    0.86700000    1.17700000 H
 H-H_(PDBName=H,ResName=2,ResNum=1)                  0    0.00000000   -0.86700000    1.17700000 H
 O-O_3--0.834000(PDBName=O,ResName=2,ResNum=1_A)     0  -24.66700000   -4.45400000   10.24500000 L
 H-H_-0.417000(PDBName=H,ResName=2,ResNum=1_A)       0  -24.65900000   -3.57200000    9.86600000 L
 H-H_-0.417000(PDBName=H,ResName=2,ResNum=1_A)       0  -23.80100000   -4.65500000   10.60800000 L
 O-O_3--0.834000(PDBName=O,ResName=2,ResNum=2_A)     0    7.29700000   25.67100000   15.46400000 L
 H-H_-0.417000(PDBName=H,ResName=2,ResNum=2_A)       0    7.30900000   26.42800000   16.05400000 L
 H-H_-0.417000(PDBName=H,ResName=2,ResNum=2_A)       0    6.57000000   25.76000000   14.84300000 L
 O-O_3--0.834000(PDBName=O,ResName=2,ResNum=3_A)     0   18.20300000    0.09200000  -13.91300000 L
 H-H_-0.417000(PDBName=H,ResName=2,ResNum=3_A)       0   18.69400000   -0.70900000  -14.11100000 L
 H-H_-0.417000(PDBName=H,ResName=2,ResNum=3_A)       0   17.28300000   -0.02600000  -14.16300000 L
 O-O_3--0.834000(PDBName=O,ResName=2,ResNum=4_A)     0   33.91100000   -4.90800000   -7.11800000 L
 H-H_-0.417000(PDBName=H,ResName=2,ResNum=4_A)       0   33.10600000   -5.39300000   -6.92700000 L
 H-H_-0.417000(PDBName=H,ResName=2,ResNum=4_A)       0   33.80200000   -4.41200000   -7.93300000 L
 O-O_3--0.834000(PDBName=O,ResName=2,ResNum=5_A)     0   23.09200000    5.41400000  -20.40400000 L
 H-H_-0.417000(PDBName=H,ResName=2,ResNum=5_A)       0   24.00300000    5.34400000  -20.70000000 L
 H-H_-0.417000(PDBName=H,ResName=2,ResNum=5_A)       0   22.79200000    4.56000000  -20.08400000 L
 O-O_3--0.834000(PDBName=O,ResName=2,ResNum=6_A)     0    1.52900000    4.36600000  -14.74400000 L
 H-H_-0.417000(PDBName=H,ResName=2,ResNum=6_A)       0    1.41200000    3.46200000  -15.04800000 L
 H-H_-0.417000(PDBName=H,ResName=2,ResNum=6_A)       0    2.45900000    4.60000000  -14.78200000 L
 O-O_3--0.834000(PDBName=O,ResName=2,ResNum=7_A)     0   -4.47900000   20.65800000  -15.02400000 L
 H-H_-0.417000(PDBName=H,ResName=2,ResNum=7_A)       0   -4.02200000   19.81400000  -15.02500000 L
 H-H_-0.417000(PDBName=H,ResName=2,ResNum=7_A)       0   -5.42800000   20.50900000  -15.03900000 L
 O-O_3--0.834000(PDBName=O,ResName=2,ResNum=8_A)     0   30.52000000   16.40500000   -2.20800000 L
 H-H_-0.417000(PDBName=H,ResName=2,ResNum=8_A)       0   30.30800000   17.32400000   -2.38800000 L
 H-H_-0.417000(PDBName=H,ResName=2,ResNum=8_A)       0   30.92600000   16.33300000   -1.34000000 L
 O-O_3--0.834000(PDBName=O,ResName=2,ResNum=9_A)     0   18.49500000   -6.08200000    6.23200000 L
 H-H_-0.417000(PDBName=H,ResName=2,ResNum=9_A)       0   17.54200000   -5.97200000    6.25200000 L
 H-H_-0.417000(PDBName=H,ResName=2,ResNum=9_A)       0   18.75200000   -6.51700000    5.41600000 L
 O-O_3--0.834000(PDBName=O,ResName=2,ResNum=10_A)    0   -1.72800000   -3.65000000   -6.48300000 L
 H-H_-0.417000(PDBName=H,ResName=2,ResNum=10_A)      0   -2.22500000   -4.04600000   -7.20300000 L
 H-H_-0.417000(PDBName=H,ResName=2,ResNum=10_A)      0   -1.14700000   -4.30900000   -6.09500000 L
 O-O_3--0.834000(PDBName=O,ResName=2,ResNum=11_A)    0   13.94300000   13.68300000  -10.26800000 L
 H-H_-0.417000(PDBName=H,ResName=2,ResNum=11_A)      0   14.00100000   12.77200000  -10.56700000 L
 H-H_-0.417000(PDBName=H,ResName=2,ResNum=11_A)      0   14.82600000   14.03700000  -10.14300000 L
 O-O_3--0.834000(PDBName=O,ResName=2,ResNum=12_A)    0  -15.74100000   15.19300000  -24.25200000 L
 H-H_-0.417000(PDBName=H,ResName=2,ResNum=12_A)      0  -15.38400000   15.32200000  -25.13400000 L
 H-H_-0.417000(PDBName=H,ResName=2,ResNum=12_A)      0  -15.26700000   14.48200000  -23.81400000 L
 O-O_3--0.834000(PDBName=O,ResName=2,ResNum=13_A)    0   -3.55900000   19.63900000   -2.18700000 L
 H-H_-0.417000(PDBName=H,ResName=2,ResNum=13_A)      0   -4.03300000   20.29800000   -1.67600000 L
 H-H_-0.417000(PDBName=H,ResName=2,ResNum=13_A)      0   -2.70600000   19.46900000   -1.78000000 L
 O-O_3--0.834000(PDBName=O,ResName=2,ResNum=14_A)    0   17.99300000   -7.77200000   12.54100000 L
 H-H_-0.417000(PDBName=H,ResName=2,ResNum=14_A)      0   17.51700000   -7.22000000   13.16700000 L
 H-H_-0.417000(PDBName=H,ResName=2,ResNum=14_A)      0   17.69800000   -8.68100000   12.62700000 L
 O-O_3--0.834000(PDBName=O,ResName=2,ResNum=15_A)    0  -14.57100000   11.67200000   25.33300000 L
 H-H_-0.417000(PDBName=H,ResName=2,ResNum=15_A)      0  -14.84500000   12.59100000   25.38100000 L
 H-H_-0.417000(PDBName=H,ResName=2,ResNum=15_A)      0  -15.30300000   11.10500000   25.58700000 L
 O-O_3--0.834000(PDBName=O,ResName=2,ResNum=16_A)    0    6.50800000   22.73500000  -18.70200000 L
 H-H_-0.417000(PDBName=H,ResName=2,ResNum=16_A)      0    7.06000000   23.31400000  -18.17100000 L
 H-H_-0.417000(PDBName=H,ResName=2,ResNum=16_A)      0    5.58400000   22.89000000  -18.49100000 L
 O-O_3--0.834000(PDBName=O,ResName=2,ResNum=17_A)    0   -4.30400000    7.91800000  -24.49900000 L
 H-H_-0.417000(PDBName=H,ResName=2,ResNum=17_A)      0   -4.61500000    7.93100000  -25.40700000 L
 H-H_-0.417000(PDBName=H,ResName=2,ResNum=17_A)      0   -3.87500000    7.07800000  -24.31800000 L
 O-O_3--0.834000(PDBName=O,ResName=2,ResNum=18_A)    0  -11.74800000   -3.50900000    6.36100000 L
 H-H_-0.417000(PDBName=H,ResName=2,ResNum=18_A)      0  -12.20500000   -4.33600000    6.53200000 L
 H-H_-0.417000(PDBName=H,ResName=2,ResNum=18_A)      0  -12.23200000   -3.00600000    5.70100000 L
 O-O_3--0.834000(PDBName=O,ResName=2,ResNum=19_A)    0    6.58700000    4.24600000   23.83000000 L
 H-H_-0.417000(PDBName=H,ResName=2,ResNum=19_A)      0    5.67400000    4.35100000   23.55200000 L
 H-H_-0.417000(PDBName=H,ResName=2,ResNum=19_A)      0    7.04100000    5.08900000   23.76600000 L
 O-O_3--0.834000(PDBName=O,ResName=2,ResNum=20_A)    0   12.97500000   -8.92400000  -15.20200000 L
 H-H_-0.417000(PDBName=H,ResName=2,ResNum=20_A)      0   13.58800000   -9.64500000  -15.03800000 L
 H-H_-0.417000(PDBName=H,ResName=2,ResNum=20_A)      0   13.29300000   -8.12800000  -14.77000000 L
 O-O_3--0.834000(PDBName=O,ResName=2,ResNum=21_A)    0   28.94900000   11.77700000    4.08600000 L
 H-H_-0.417000(PDBName=H,ResName=2,ResNum=21_A)      0   28.49200000   11.79700000    4.93000000 L
 H-H_-0.417000(PDBName=H,ResName=2,ResNum=21_A)      0   29.38200000   10.92700000    3.97500000 L
 O-O_3--0.834000(PDBName=O,ResName=2,ResNum=22_A)    0    1.40800000  -13.32000000  -19.98300000 L
 H-H_-0.417000(PDBName=H,ResName=2,ResNum=22_A)      0    1.21000000  -13.01500000  -19.09500000 L
 H-H_-0.417000(PDBName=H,ResName=2,ResNum=22_A)      0    2.32800000  -13.59100000  -20.03200000 L
 O-O_3--0.834000(PDBName=O,ResName=2,ResNum=23_A)    0   22.06700000  -14.24300000   13.58300000 L
 H-H_-0.417000(PDBName=H,ResName=2,ResNum=23_A)      0   22.95900000  -14.38300000   13.25900000 L
 H-H_-0.417000(PDBName=H,ResName=2,ResNum=23_A)      0   21.89900000  -13.30100000   13.66400000 L
 O-O_3--0.834000(PDBName=O,ResName=2,ResNum=24_A)    0    9.31600000  -21.26400000    9.17000000 L
 H-H_-0.417000(PDBName=H,ResName=2,ResNum=24_A)      0    9.60200000  -20.35200000    9.26700000 L
 H-H_-0.417000(PDBName=H,ResName=2,ResNum=24_A)      0    9.68600000  -21.63200000    8.36400000 L
 O-O_3--0.834000(PDBName=O,ResName=2,ResNum=25_A)    0   15.52300000    1.35000000    0.55600000 L
 H-H_-0.417000(PDBName=H,ResName=2,ResNum=25_A)      0   15.83900000    0.52900000    0.94100000 L
 H-H_-0.417000(PDBName=H,ResName=2,ResNum=25_A)      0   15.66800000    2.07100000    1.17400000 L
 O-O_3--0.834000(PDBName=O,ResName=2,ResNum=26_A)    0   27.07700000   -7.34600000   -9.39900000 L
 H-H_-0.417000(PDBName=H,ResName=2,ResNum=26_A)      0   26.60500000   -8.18200000   -9.36100000 L
 H-H_-0.417000(PDBName=H,ResName=2,ResNum=26_A)      0   27.92900000   -7.47800000   -9.82000000 L
 O-O_3--0.834000(PDBName=O,ResName=2,ResNum=27_A)    0    0.48000000   10.42200000   30.72600000 L
 H-H_-0.417000(PDBName=H,ResName=2,ResNum=27_A)      0    1.11000000   10.98300000   30.26800000 L
 H-H_-0.417000(PDBName=H,ResName=2,ResNum=27_A)      0    0.18800000    9.72100000   30.13700000 L
 O-O_3--0.834000(PDBName=O,ResName=2,ResNum=28_A)    0   13.57300000   -2.89400000  -22.30600000 L
 H-H_-0.417000(PDBName=H,ResName=2,ResNum=28_A)      0   13.73300000   -2.41200000  -21.49100000 L
 H-H_-0.417000(PDBName=H,ResName=2,ResNum=28_A)      0   12.82500000   -2.50700000  -22.76700000 L
 O-O_3--0.834000(PDBName=O,ResName=2,ResNum=29_A)    0  -11.94800000  -17.88500000  -26.11900000 L
 H-H_-0.417000(PDBName=H,ResName=2,ResNum=29_A)      0  -12.31800000  -17.07700000  -25.75700000 L
 H-H_-0.417000(PDBName=H,ResName=2,ResNum=29_A)      0  -12.19600000  -17.96600000  -27.04300000 L
 O-O_3--0.834000(PDBName=O,ResName=2,ResNum=30_A)    0   -7.03300000   28.61600000    8.19600000 L
 H-H_-0.417000(PDBName=H,ResName=2,ResNum=30_A)      0   -6.24700000   28.82900000    7.68600000 L
 H-H_-0.417000(PDBName=H,ResName=2,ResNum=30_A)      0   -6.93100000   27.74900000    8.59600000 L
 O-O_3--0.834000(PDBName=O,ResName=2,ResNum=31_A)    0   27.66100000   20.34300000    0.77500000 L
 H-H_-0.417000(PDBName=H,ResName=2,ResNum=31_A)      0   27.76900000   19.41400000    0.99100000 L
 H-H_-0.417000(PDBName=H,ResName=2,ResNum=31_A)      0   26.74400000   20.59800000    0.89900000 L
 O-O_3--0.834000(PDBName=O,ResName=2,ResNum=32_A)    0  -21.19200000   13.34700000   -8.41400000 L
 H-H_-0.417000(PDBName=H,ResName=2,ResNum=32_A)      0  -21.21100000   12.50200000   -7.95800000 L
 H-H_-0.417000(PDBName=H,ResName=2,ResNum=32_A)      0  -21.67100000   13.27500000   -9.24300000 L
 O-O_3--0.834000(PDBName=O,ResName=2,ResNum=33_A)    0  -22.59200000   13.11000000   21.57900000 L
 H-H_-0.417000(PDBName=H,ResName=2,ResNum=33_A)      0  -22.70400000   13.93600000   21.10300000 L
 H-H_-0.417000(PDBName=H,ResName=2,ResNum=33_A)      0  -21.74000000   13.10800000   22.02200000 L
 O-O_3--0.834000(PDBName=O,ResName=2,ResNum=34_A)    0   -6.49100000  -26.79300000   -4.77700000 L
 H-H_-0.417000(PDBName=H,ResName=2,ResNum=34_A)      0   -7.17400000  -26.96700000   -5.42900000 L
 H-H_-0.417000(PDBName=H,ResName=2,ResNum=34_A)      0   -6.22300000  -25.87300000   -4.83100000 L
 O-O_3--0.834000(PDBName=O,ResName=2,ResNum=35_A)    0   18.18300000   14.00600000   12.40000000 L
 H-H_-0.417000(PDBName=H,ResName=2,ResNum=35_A)      0   17.91900000   13.24900000   11.87200000 L
 H-H_-0.417000(PDBName=H,ResName=2,ResNum=35_A)      0   18.89600000   13.75300000   12.99000000 L
 O-O_3--0.834000(PDBName=O,ResName=2,ResNum=36_A)    0    2.99800000   14.85400000    0.90900000 L
 H-H_-0.417000(PDBName=H,ResName=2,ResNum=36_A)      0    2.50700000   14.18300000    0.42900000 L
 H-H_-0.417000(PDBName=H,ResName=2,ResNum=36_A)      0    3.82600000   14.48300000    1.22200000 L
 O-O_3--0.834000(PDBName=O,ResName=2,ResNum=37_A)    0  -11.10300000   26.69800000   -2.97100000 L
 H-H_-0.417000(PDBName=H,ResName=2,ResNum=37_A)      0  -11.01300000   25.88000000   -2.47600000 L
 H-H_-0.417000(PDBName=H,ResName=2,ResNum=37_A)      0  -12.02300000   26.97100000   -2.97500000 L
 O-O_3--0.834000(PDBName=O,ResName=2,ResNum=38_A)    0   -7.26100000  -18.92700000   24.09700000 L
 H-H_-0.417000(PDBName=H,ResName=2,ResNum=38_A)      0   -7.77000000  -18.17000000   23.79800000 L
 H-H_-0.417000(PDBName=H,ResName=2,ResNum=38_A)      0   -7.75700000  -19.73300000   23.93300000 L
 O-O_3--0.834000(PDBName=O,ResName=2,ResNum=39_A)    0   -6.70100000   -9.43300000  -14.25300000 L
 H-H_-0.417000(PDBName=H,ResName=2,ResNum=39_A)      0   -7.56400000   -9.17700000  -14.58700000 L
 H-H_-0.417000(PDBName=H,ResName=2,ResNum=39_A)      0   -6.48400000   -8.90300000  -13.48300000 L
 O-O_3--0.834000(PDBName=O,ResName=2,ResNum=40_A)    0   -7.75200000  -10.77200000   32.21800000 L
 H-H_-0.417000(PDBName=H,ResName=2,ResNum=40_A)      0   -8.69900000  -10.61300000   32.19800000 L
 H-H_-0.417000(PDBName=H,ResName=2,ResNum=40_A)      0   -7.31200000  -10.03400000   32.64600000 L
 O-O_3--0.834000(PDBName=O,ResName=2,ResNum=41_A)    0   12.87100000  -17.35600000  -12.70800000 L
 H-H_-0.417000(PDBName=H,ResName=2,ResNum=41_A)      0   12.19000000  -16.75600000  -13.02000000 L
 H-H_-0.417000(PDBName=H,ResName=2,ResNum=41_A)      0   13.60200000  -17.36300000  -13.33000000 L
 O-O_3--0.834000(PDBName=O,ResName=2,ResNum=42_A)    0   -8.80900000   -1.60500000  -28.70500000 L
 H-H_-0.417000(PDBName=H,ResName=2,ResNum=42_A)      0   -9.52200000   -2.19800000  -28.45600000 L
 H-H_-0.417000(PDBName=H,ResName=2,ResNum=42_A)      0   -8.98100000   -0.73000000  -28.35000000 L
 O-O_3--0.834000(PDBName=O,ResName=2,ResNum=43_A)    0    2.99600000    7.00900000   -0.47000000 L
 H-H_-0.417000(PDBName=H,ResName=2,ResNum=43_A)      0    3.60500000    7.72300000   -0.26900000 L
 H-H_-0.417000(PDBName=H,ResName=2,ResNum=43_A)      0    2.14200000    7.37500000   -0.71600000 L
 O-O_3--0.834000(PDBName=O,ResName=2,ResNum=44_A)    0    1.46400000  -22.64200000  -25.90700000 L
 H-H_-0.417000(PDBName=H,ResName=2,ResNum=44_A)      0    1.80200000  -23.53800000  -25.84000000 L
 H-H_-0.417000(PDBName=H,ResName=2,ResNum=44_A)      0    1.20800000  -22.46200000  -26.81400000 L
 O-O_3--0.834000(PDBName=O,ResName=2,ResNum=45_A)    0  -22.49900000   -9.30900000    1.68300000 L
 H-H_-0.417000(PDBName=H,ResName=2,ResNum=45_A)      0  -22.38600000  -10.25800000    1.76700000 L
 H-H_-0.417000(PDBName=H,ResName=2,ResNum=45_A)      0  -22.99800000   -8.97800000    2.43400000 L
 O-O_3--0.834000(PDBName=O,ResName=2,ResNum=46_A)    0  -23.59400000   -2.15700000   -8.79700000 L
 H-H_-0.417000(PDBName=H,ResName=2,ResNum=46_A)      0  -24.15800000   -2.64200000   -9.40400000 L
 H-H_-0.417000(PDBName=H,ResName=2,ResNum=46_A)      0  -24.13200000   -1.76000000   -8.10800000 L
 O-O_3--0.834000(PDBName=O,ResName=2,ResNum=47_A)    0   -2.72300000  -20.71900000   16.77900000 L
 H-H_-0.417000(PDBName=H,ResName=2,ResNum=47_A)      0   -3.51900000  -20.55900000   17.29100000 L
 H-H_-0.417000(PDBName=H,ResName=2,ResNum=47_A)      0   -2.64900000  -21.65600000   16.58600000 L
 O-O_3--0.834000(PDBName=O,ResName=2,ResNum=48_A)    0   27.99300000   -4.05600000  -10.61200000 L
 H-H_-0.417000(PDBName=H,ResName=2,ResNum=48_A)      0   27.55500000   -4.72500000  -10.08100000 L
 H-H_-0.417000(PDBName=H,ResName=2,ResNum=48_A)      0   27.84000000   -4.23400000  -11.54300000 L
 O-O_3--0.834000(PDBName=O,ResName=2,ResNum=49_A)    0  -30.25700000  -13.85100000   -7.27300000 L
 H-H_-0.417000(PDBName=H,ResName=2,ResNum=49_A)      0  -29.72800000  -13.83400000   -8.07400000 L
 H-H_-0.417000(PDBName=H,ResName=2,ResNum=49_A)      0  -31.02000000  -14.41900000   -7.40500000 L
 O-O_3--0.834000(PDBName=O,ResName=2,ResNum=50_A)    0   22.84300000    0.74000000    1.18100000 L
 H-H_-0.417000(PDBName=H,ResName=2,ResNum=50_A)      0   21.95400000    0.91800000    1.49700000 L
 H-H_-0.417000(PDBName=H,ResName=2,ResNum=50_A)      0   23.44200000    0.67500000    1.92900000 L
 O-O_3--0.834000(PDBName=O,ResName=2,ResNum=51_A)    0   -8.60800000    4.90900000   32.49900000 L
 H-H_-0.417000(PDBName=H,ResName=2,ResNum=51_A)      0   -8.62700000    3.97300000   32.28500000 L
 H-H_-0.417000(PDBName=H,ResName=2,ResNum=51_A)      0   -9.35500000    5.12500000   33.06200000 L
 O-O_3--0.834000(PDBName=O,ResName=2,ResNum=52_A)    0   -2.66600000  -22.86700000    0.85100000 L
 H-H_-0.417000(PDBName=H,ResName=2,ResNum=52_A)      0   -3.11000000  -23.71900000    0.85700000 L
 H-H_-0.417000(PDBName=H,ResName=2,ResNum=52_A)      0   -3.31800000  -22.16500000    0.91700000 L
 O-O_3--0.834000(PDBName=O,ResName=2,ResNum=53_A)    0   13.25400000   22.51200000    8.66300000 L
 H-H_-0.417000(PDBName=H,ResName=2,ResNum=53_A)      0   12.60500000   21.81400000    8.77200000 L
 H-H_-0.417000(PDBName=H,ResName=2,ResNum=53_A)      0   12.90400000   23.33400000    9.01400000 L
 O-O_3--0.834000(PDBName=O,ResName=2,ResNum=54_A)    0    4.24100000   -8.72900000   16.37500000 L
 H-H_-0.417000(PDBName=H,ResName=2,ResNum=54_A)      0    4.07900000   -7.93500000   15.86000000 L
 H-H_-0.417000(PDBName=H,ResName=2,ResNum=54_A)      0    3.41100000   -9.18900000   16.52300000 L
 O-O_3--0.834000(PDBName=O,ResName=2,ResNum=55_A)    0    5.50100000   10.49400000   19.71700000 L
 H-H_-0.417000(PDBName=H,ResName=2,ResNum=55_A)      0    5.78900000   11.41000000   19.73800000 L
 H-H_-0.417000(PDBName=H,ResName=2,ResNum=55_A)      0    6.25300000    9.91800000   19.87500000 L
 O-O_3--0.834000(PDBName=O,ResName=2,ResNum=56_A)    0  -24.48500000   -5.22500000   -7.70300000 L
 H-H_-0.417000(PDBName=H,ResName=2,ResNum=56_A)      0  -25.10100000   -4.50500000   -7.54500000 L
 H-H_-0.417000(PDBName=H,ResName=2,ResNum=56_A)      0  -24.36200000   -5.34000000   -8.64800000 L
 O-O_3--0.834000(PDBName=O,ResName=2,ResNum=57_A)    0   19.76500000  -26.44600000    0.57200000 L
 H-H_-0.417000(PDBName=H,ResName=2,ResNum=57_A)      0   19.37400000  -26.43300000    1.44800000 L
 H-H_-0.417000(PDBName=H,ResName=2,ResNum=57_A)      0   20.72200000  -26.44100000    0.64700000 L
 O-O_3--0.834000(PDBName=O,ResName=2,ResNum=58_A)    0   10.40900000   19.50600000   20.86500000 L
 H-H_-0.417000(PDBName=H,ResName=2,ResNum=58_A)      0   10.54300000   19.65600000   19.92700000 L
 H-H_-0.417000(PDBName=H,ResName=2,ResNum=58_A)      0   11.07800000   19.97900000   21.36500000 L
 O-O_3--0.834000(PDBName=O,ResName=2,ResNum=59_A)    0  -11.71700000   24.57000000    3.20600000 L
 H-H_-0.417000(PDBName=H,ResName=2,ResNum=59_A)      0  -12.10100000   23.82000000    2.74600000 L
 H-H_-0.417000(PDBName=H,ResName=2,ResNum=59_A)      0  -11.73100000   25.33900000    2.63100000 L
 O-O_3--0.834000(PDBName=O,ResName=2,ResNum=60_A)    0    0.45400000    4.37900000   29.83400000 L
 H-H_-0.417000(PDBName=H,ResName=2,ResNum=60_A)      0    0.35800000    3.43900000   29.66500000 L
 H-H_-0.417000(PDBName=H,ResName=2,ResNum=60_A)      0    1.28100000    4.69000000   29.45900000 L
 O-O_3--0.834000(PDBName=O,ResName=2,ResNum=61_A)    0   -2.31300000   -6.40600000  -14.45400000 L
 H-H_-0.417000(PDBName=H,ResName=2,ResNum=61_A)      0   -2.49500000   -7.34800000  -14.43000000 L
 H-H_-0.417000(PDBName=H,ResName=2,ResNum=61_A)      0   -1.50200000   -6.22400000  -13.97300000 L
 O-O_3--0.834000(PDBName=O,ResName=2,ResNum=62_A)    0   14.71600000   12.00000000  -19.68600000 L
 H-H_-0.417000(PDBName=H,ResName=2,ResNum=62_A)      0   14.31100000   11.26300000  -20.14900000 L
 H-H_-0.417000(PDBName=H,ResName=2,ResNum=62_A)      0   14.35600000   12.82500000  -20.01900000 L
 O-O_3--0.834000(PDBName=O,ResName=2,ResNum=63_A)    0   12.47300000    0.99900000   22.08900000 L
 H-H_-0.417000(PDBName=H,ResName=2,ResNum=63_A)      0   12.08700000    1.87200000   21.98900000 L
 H-H_-0.417000(PDBName=H,ResName=2,ResNum=63_A)      0   11.77600000    0.35500000   22.23900000 L
 O-O_3--0.834000(PDBName=O,ResName=2,ResNum=64_A)    0   20.52700000   -1.44900000   -3.40200000 L
 H-H_-0.417000(PDBName=H,ResName=2,ResNum=64_A)      0   19.92100000   -1.87000000   -2.78800000 L
 H-H_-0.417000(PDBName=H,ResName=2,ResNum=64_A)      0   21.31600000   -1.98800000   -3.49500000 L
 O-O_3--0.834000(PDBName=O,ResName=2,ResNum=65_A)    0   -1.18200000   -7.18800000   -7.14000000 L
 H-H_-0.417000(PDBName=H,ResName=2,ResNum=65_A)      0   -0.26600000   -6.90000000   -7.11000000 L
 H-H_-0.417000(PDBName=H,ResName=2,ResNum=65_A)      0   -1.66000000   -6.67100000   -7.79300000 L
 O-O_3--0.834000(PDBName=O,ResName=2,ResNum=66_A)    0   -8.74500000   16.23100000  -29.07400000 L
 H-H_-0.417000(PDBName=H,ResName=2,ResNum=66_A)      0   -9.66400000   16.25800000  -28.79500000 L
 H-H_-0.417000(PDBName=H,ResName=2,ResNum=66_A)      0   -8.21100000   16.75200000  -28.46900000 L
 O-O_3--0.834000(PDBName=O,ResName=2,ResNum=67_A)    0   -0.74200000   -8.52400000   11.30500000 L
 H-H_-0.417000(PDBName=H,ResName=2,ResNum=67_A)      0    0.16700000   -8.37700000   11.03100000 L
 H-H_-0.417000(PDBName=H,ResName=2,ResNum=67_A)      0   -1.28500000   -8.70200000   10.53300000 L
 O-O_3--0.834000(PDBName=O,ResName=2,ResNum=68_A)    0   21.16200000   -4.94200000   -8.85800000 L
 H-H_-0.417000(PDBName=H,ResName=2,ResNum=68_A)      0   21.13200000   -4.83300000   -7.90500000 L
 H-H_-0.417000(PDBName=H,ResName=2,ResNum=68_A)      0   20.30200000   -4.73600000   -9.23200000 L
 O-O_3--0.834000(PDBName=O,ResName=2,ResNum=69_A)    0  -21.93600000    6.15600000    8.00300000 L
 H-H_-0.417000(PDBName=H,ResName=2,ResNum=69_A)      0  -21.65000000    6.83000000    7.38200000 L
 H-H_-0.417000(PDBName=H,ResName=2,ResNum=69_A)      0  -21.18800000    5.86800000    8.53200000 L
 O-O_3--0.834000(PDBName=O,ResName=2,ResNum=70_A)    0   19.98300000   -4.49300000    8.57100000 L
 H-H_-0.417000(PDBName=H,ResName=2,ResNum=70_A)      0   19.04700000   -4.39100000    8.38100000 L
 H-H_-0.417000(PDBName=H,ResName=2,ResNum=70_A)      0   20.41300000   -4.93500000    7.83500000 L
 O-O_3--0.834000(PDBName=O,ResName=2,ResNum=71_A)    0    2.87600000  -20.13600000  -12.08800000 L
 H-H_-0.417000(PDBName=H,ResName=2,ResNum=71_A)      0    2.20100000  -19.61100000  -12.52500000 L
 H-H_-0.417000(PDBName=H,ResName=2,ResNum=71_A)      0    3.45100000  -19.56000000  -11.57900000 L
 O-O_3--0.834000(PDBName=O,ResName=2,ResNum=72_A)    0   14.36200000  -31.34600000   -4.02100000 L
 H-H_-0.417000(PDBName=H,ResName=2,ResNum=72_A)      0   13.63700000  -30.86100000   -3.61900000 L
 H-H_-0.417000(PDBName=H,ResName=2,ResNum=72_A)      0   14.09500000  -31.66100000   -4.88800000 L
 O-O_3--0.834000(PDBName=O,ResName=2,ResNum=73_A)    0  -10.93700000  -10.51400000  -18.07300000 L
 H-H_-0.417000(PDBName=H,ResName=2,ResNum=73_A)      0  -11.00100000  -11.21200000  -17.41700000 L
 H-H_-0.417000(PDBName=H,ResName=2,ResNum=73_A)      0  -10.03800000  -10.47000000  -18.40900000 L
 O-O_3--0.834000(PDBName=O,ResName=2,ResNum=74_A)    0  -14.86500000  -24.57200000    4.51200000 L
 H-H_-0.417000(PDBName=H,ResName=2,ResNum=74_A)      0  -14.46600000  -23.70300000    4.41900000 L
 H-H_-0.417000(PDBName=H,ResName=2,ResNum=74_A)      0  -15.26900000  -24.83000000    3.68100000 L
 O-O_3--0.834000(PDBName=O,ResName=2,ResNum=75_A)    0  -17.01000000  -12.08900000   25.08500000 L
 H-H_-0.417000(PDBName=H,ResName=2,ResNum=75_A)      0  -17.03900000  -11.25600000   24.60800000 L
 H-H_-0.417000(PDBName=H,ResName=2,ResNum=75_A)      0  -17.36700000  -12.78800000   24.53200000 L
 O-O_3--0.834000(PDBName=O,ResName=2,ResNum=76_A)    0    6.16100000    6.70900000  -16.44200000 L
 H-H_-0.417000(PDBName=H,ResName=2,ResNum=76_A)      0    6.82700000    6.19500000  -15.98000000 L
 H-H_-0.417000(PDBName=H,ResName=2,ResNum=76_A)      0    5.57900000    7.12900000  -15.80400000 L
 O-O_3--0.834000(PDBName=O,ResName=2,ResNum=77_A)    0   16.64700000  -12.96800000   11.43700000 L
 H-H_-0.417000(PDBName=H,ResName=2,ResNum=77_A)      0   16.01100000  -13.55700000   11.02400000 L
 H-H_-0.417000(PDBName=H,ResName=2,ResNum=77_A)      0   16.33800000  -12.06200000   11.36500000 L
 O-O_3--0.834000(PDBName=O,ResName=2,ResNum=78_A)    0  -18.84400000   -5.21800000    8.26400000 L
 H-H_-0.417000(PDBName=H,ResName=2,ResNum=78_A)      0  -19.61900000   -4.65500000    8.33000000 L
 H-H_-0.417000(PDBName=H,ResName=2,ResNum=78_A)      0  -18.06900000   -4.73300000    8.55700000 L
 O-O_3--0.834000(PDBName=O,ResName=2,ResNum=79_A)    0   24.90100000    2.72300000    4.43200000 L
 H-H_-0.417000(PDBName=H,ResName=2,ResNum=79_A)      0   24.24000000    3.25500000    4.88200000 L
 H-H_-0.417000(PDBName=H,ResName=2,ResNum=79_A)      0   25.72900000    2.76300000    4.91600000 L
 O-O_3--0.834000(PDBName=O,ResName=2,ResNum=80_A)    0   15.53900000   16.59300000   -1.56200000 L
 H-H_-0.417000(PDBName=H,ResName=2,ResNum=80_A)      0   14.60900000   16.59000000   -1.32200000 L
 H-H_-0.417000(PDBName=H,ResName=2,ResNum=80_A)      0   15.76900000   15.75300000   -1.96500000 L
 O-O_3--0.834000(PDBName=O,ResName=2,ResNum=81_A)    0   27.74000000    4.43900000    2.68200000 L
 H-H_-0.417000(PDBName=H,ResName=2,ResNum=81_A)      0   28.24600000    5.20200000    2.97200000 L
 H-H_-0.417000(PDBName=H,ResName=2,ResNum=81_A)      0   28.11800000    4.09400000    1.87000000 L
 O-O_3--0.834000(PDBName=O,ResName=2,ResNum=82_A)    0    5.59100000   20.29000000  -17.55800000 L
 H-H_-0.417000(PDBName=H,ResName=2,ResNum=82_A)      0    6.26400000   19.68100000  -17.87100000 L
 H-H_-0.417000(PDBName=H,ResName=2,ResNum=82_A)      0    4.75600000   19.82600000  -17.46600000 L
 O-O_3--0.834000(PDBName=O,ResName=2,ResNum=83_A)    0   -0.40000000   21.11900000    1.49000000 L
 H-H_-0.417000(PDBName=H,ResName=2,ResNum=83_A)      0    0.54800000   21.25300000    1.55900000 L
 H-H_-0.417000(PDBName=H,ResName=2,ResNum=83_A)      0   -0.58500000   20.18200000    1.39200000 L
 O-O_3--0.834000(PDBName=O,ResName=2,ResNum=84_A)    0   -3.26200000   -7.83800000  -28.69500000 L
 H-H_-0.417000(PDBName=H,ResName=2,ResNum=84_A)      0   -3.27600000   -8.79700000  -28.73800000 L
 H-H_-0.417000(PDBName=H,ResName=2,ResNum=84_A)      0   -2.35300000   -7.53100000  -28.65600000 L
 O-O_3--0.834000(PDBName=O,ResName=2,ResNum=85_A)    0    3.94500000   31.87900000   -2.67000000 L
 H-H_-0.417000(PDBName=H,ResName=2,ResNum=85_A)      0    3.13100000   31.37000000   -2.65400000 L
 H-H_-0.417000(PDBName=H,ResName=2,ResNum=85_A)      0    3.82300000   32.66000000   -3.21500000 L
 O-O_3--0.834000(PDBName=O,ResName=2,ResNum=86_A)    0   -9.37700000  -21.39900000   14.70500000 L
 H-H_-0.417000(PDBName=H,ResName=2,ResNum=86_A)      0   -8.44700000  -21.57200000   14.54100000 L
 H-H_-0.417000(PDBName=H,ResName=2,ResNum=86_A)      0   -9.57400000  -21.55200000   15.63200000 L
 O-O_3--0.834000(PDBName=O,ResName=2,ResNum=87_A)    0   11.82600000   31.49800000    6.89000000 L
 H-H_-0.417000(PDBName=H,ResName=2,ResNum=87_A)      0   12.61800000   31.74300000    6.40700000 L
 H-H_-0.417000(PDBName=H,ResName=2,ResNum=87_A)      0   11.40500000   32.28800000    7.23900000 L
 O-O_3--0.834000(PDBName=O,ResName=2,ResNum=88_A)    0    1.25500000   -4.98000000   24.95400000 L
 H-H_-0.417000(PDBName=H,ResName=2,ResNum=88_A)      0    0.84000000   -4.53500000   25.69700000 L
 H-H_-0.417000(PDBName=H,ResName=2,ResNum=88_A)      0    2.10500000   -4.57300000   24.77100000 L
 O-O_3--0.834000(PDBName=O,ResName=2,ResNum=89_A)    0    2.28800000   34.45800000    2.47100000 L
 H-H_-0.417000(PDBName=H,ResName=2,ResNum=89_A)      0    1.45900000   34.89600000    2.26400000 L
 H-H_-0.417000(PDBName=H,ResName=2,ResNum=89_A)      0    2.13300000   33.77200000    3.12500000 L
 O-O_3--0.834000(PDBName=O,ResName=2,ResNum=90_A)    0   -0.71100000    0.17800000   21.29400000 L
 H-H_-0.417000(PDBName=H,ResName=2,ResNum=90_A)      0   -1.38200000   -0.23000000   21.84500000 L
 H-H_-0.417000(PDBName=H,ResName=2,ResNum=90_A)      0   -0.98300000    1.07000000   21.06400000 L
 O-O_3--0.834000(PDBName=O,ResName=2,ResNum=91_A)    0    5.73400000  -21.60500000   14.73500000 L
 H-H_-0.417000(PDBName=H,ResName=2,ResNum=91_A)      0    6.33600000  -21.36200000   15.44300000 L
 H-H_-0.417000(PDBName=H,ResName=2,ResNum=91_A)      0    6.16200000  -22.23800000   14.15400000 L
 O-O_3--0.834000(PDBName=O,ResName=2,ResNum=92_A)    0  -28.77900000   -1.21000000   -7.48300000 L
 H-H_-0.417000(PDBName=H,ResName=2,ResNum=92_A)      0  -29.47200000   -0.82900000   -8.02700000 L
 H-H_-0.417000(PDBName=H,ResName=2,ResNum=92_A)      0  -28.89900000   -0.93600000   -6.57100000 L
 O-O_3--0.834000(PDBName=O,ResName=2,ResNum=93_A)    0    1.93700000   17.01000000   29.35800000 L
 H-H_-0.417000(PDBName=H,ResName=2,ResNum=93_A)      0    2.61300000   17.16300000   28.69400000 L
 H-H_-0.417000(PDBName=H,ResName=2,ResNum=93_A)      0    1.72400000   16.07400000   29.39000000 L
 O-O_3--0.834000(PDBName=O,ResName=2,ResNum=94_A)    0  -19.10800000  -26.44800000   -2.97600000 L
 H-H_-0.417000(PDBName=H,ResName=2,ResNum=94_A)      0  -18.30200000  -26.78300000   -2.57600000 L
 H-H_-0.417000(PDBName=H,ResName=2,ResNum=94_A)      0  -19.86900000  -26.84300000   -2.54200000 L
 O-O_3--0.834000(PDBName=O,ResName=2,ResNum=95_A)    0   19.60400000    6.35400000    2.62700000 L
 H-H_-0.417000(PDBName=H,ResName=2,ResNum=95_A)      0   18.82800000    6.67500000    2.16200000 L
 H-H_-0.417000(PDBName=H,ResName=2,ResNum=95_A)      0   20.27100000    6.08300000    1.99100000 L
 O-O_3--0.834000(PDBName=O,ResName=2,ResNum=96_A)    0   17.70700000    9.73800000  -23.41800000 L
 H-H_-0.417000(PDBName=H,ResName=2,ResNum=96_A)      0   17.45200000    8.99500000  -22.86600000 L
 H-H_-0.417000(PDBName=H,ResName=2,ResNum=96_A)      0   17.01700000    9.91000000  -24.06400000 L
 O-O_3--0.834000(PDBName=O,ResName=2,ResNum=97_A)    0   -1.61200000   29.01400000   -9.35900000 L
 H-H_-0.417000(PDBName=H,ResName=2,ResNum=97_A)      0   -1.62800000   28.45800000  -10.14100000 L
 H-H_-0.417000(PDBName=H,ResName=2,ResNum=97_A)      0   -1.88700000   29.90400000   -9.59200000 L
 O-O_3--0.834000(PDBName=O,ResName=2,ResNum=98_A)    0    9.43600000   -1.64800000   24.47700000 L