%chk=G:\tree\Gitlib\jade\src\ci_overlap\interface_gaussian_oniom\test\model\mix.chk
# hf/3-21g geom=connectivity

Built with Packmol

0 2
 C(PDBName=C,ResName=2,ResNum=1)                     0    0.00000000    0.00000000   -0.63800000 H
 H(PDBName=H,ResName=2,ResNum=1)                     0    0.00000000    0.94400000   -1.17700000 H
 H(PDBName=H,ResName=2,ResNum=1)                     0    0.00000000   -0.94400000   -1.17700000 H
 N(PDBName=N,ResName=2,ResNum=1)                     0    0.00000000    0.00000000    0.63700000 H
 H(PDBName=H,ResName=2,ResNum=1)                     0    0.00000000    0.86700000    1.17700000 H
 H(PDBName=H,ResName=2,ResNum=1)                     0    0.00000000   -0.86700000    1.17700000 H
 O(PDBName=O,ResName=2,ResNum=1_A)                   0    3.79100000    8.45900000   26.34700000 L
 H(PDBName=H,ResName=2,ResNum=1_A)                   0    3.62300000    7.51900000   26.24700000 L
 H(PDBName=H,ResName=2,ResNum=1_A)                   0    4.73800000    8.61800000   26.34400000 L
 O(PDBName=O,ResName=2,ResNum=2_A)                   0    8.15300000   -1.70000000  -37.14700000 L
 H(PDBName=H,ResName=2,ResNum=2_A)                   0    7.62800000   -2.47700000  -37.35400000 L
 H(PDBName=H,ResName=2,ResNum=2_A)                   0    9.06200000   -1.96200000  -36.98400000 L
 O(PDBName=O,ResName=2,ResNum=3_A)                   0   22.21100000   31.73300000    4.69800000 L
 H(PDBName=H,ResName=2,ResNum=3_A)                   0   21.63900000   31.73400000    3.92700000 L
 H(PDBName=H,ResName=2,ResNum=3_A)                   0   22.75600000   32.52300000    4.69400000 L
 O(PDBName=O,ResName=2,ResNum=4_A)                   0   -8.23000000  -12.36400000   18.35200000 L
 H(PDBName=H,ResName=2,ResNum=4_A)                   0   -8.34900000  -13.28100000   18.60800000 L
 H(PDBName=H,ResName=2,ResNum=4_A)                   0   -8.29200000  -12.28700000   17.39600000 L
 O(PDBName=O,ResName=2,ResNum=5_A)                   0  -13.71400000   -0.27000000  -11.66600000 L
 H(PDBName=H,ResName=2,ResNum=5_A)                   0  -12.92300000   -0.71400000  -11.35100000 L
 H(PDBName=H,ResName=2,ResNum=5_A)                   0  -13.52700000    0.66300000  -11.79800000 L
 O(PDBName=O,ResName=2,ResNum=6_A)                   0  -17.10400000   19.49700000    3.81900000 L
 H(PDBName=H,ResName=2,ResNum=6_A)                   0  -17.87700000   19.24500000    3.30900000 L
 H(PDBName=H,ResName=2,ResNum=6_A)                   0  -17.27100000   20.33000000    4.26600000 L
 O(PDBName=O,ResName=2,ResNum=7_A)                   0    0.01500000    6.95300000   -2.44200000 L
 H(PDBName=H,ResName=2,ResNum=7_A)                   0   -0.92700000    6.76900000   -2.43900000 L
 H(PDBName=H,ResName=2,ResNum=7_A)                   0    0.15600000    7.90300000   -2.44900000 L
 O(PDBName=O,ResName=2,ResNum=8_A)                   0  -20.17500000    4.68600000   -7.67300000 L
 H(PDBName=H,ResName=2,ResNum=8_A)                   0  -20.01100000    4.80700000   -6.73400000 L
 H(PDBName=H,ResName=2,ResNum=8_A)                   0  -20.86300000    4.02800000   -7.79600000 L
 O(PDBName=O,ResName=2,ResNum=9_A)                   0    6.91400000   -5.55900000   19.47300000 L
 H(PDBName=H,ResName=2,ResNum=9_A)                   0    6.67000000   -4.99600000   20.21100000 L
 H(PDBName=H,ResName=2,ResNum=9_A)                   0    6.13900000   -6.02900000   19.15700000 L
 O(PDBName=O,ResName=2,ResNum=10_A)                  0  -17.96700000   19.49800000  -10.56300000 L
 H(PDBName=H,ResName=2,ResNum=10_A)                  0  -18.87000000   19.81600000  -10.49500000 L
 H(PDBName=H,ResName=2,ResNum=10_A)                  0  -17.97100000   18.54800000  -10.70600000 L
 O(PDBName=O,ResName=2,ResNum=11_A)                  0   17.63400000    4.27600000   25.91000000 L
 H(PDBName=H,ResName=2,ResNum=11_A)                  0   17.81500000    3.74600000   26.69000000 L
 H(PDBName=H,ResName=2,ResNum=11_A)                  0   17.75600000    5.20600000   26.11900000 L
 O(PDBName=O,ResName=2,ResNum=12_A)                  0  -24.14500000   25.99100000    1.17400000 L
 H(PDBName=H,ResName=2,ResNum=12_A)                  0  -23.56900000   26.75400000    1.08700000 L
 H(PDBName=H,ResName=2,ResNum=12_A)                  0  -24.97200000   26.16000000    0.71500000 L
 O(PDBName=O,ResName=2,ResNum=13_A)                  0   15.13300000    9.30200000  -33.88200000 L
 H(PDBName=H,ResName=2,ResNum=13_A)                  0   15.60200000   10.07800000  -34.19900000 L
 H(PDBName=H,ResName=2,ResNum=13_A)                  0   15.76600000    8.62200000  -33.64100000 L
 O(PDBName=O,ResName=2,ResNum=14_A)                  0    4.65800000  -21.06300000  -14.17800000 L
 H(PDBName=H,ResName=2,ResNum=14_A)                  0    4.51800000  -20.33900000  -13.56300000 L
 H(PDBName=H,ResName=2,ResNum=14_A)                  0    3.99500000  -21.02700000  -14.87200000 L
 O(PDBName=O,ResName=2,ResNum=15_A)                  0   13.10900000   -9.01400000   18.30100000 L
 H(PDBName=H,ResName=2,ResNum=15_A)                  0   13.39100000   -8.99900000   19.21800000 L
 H(PDBName=H,ResName=2,ResNum=15_A)                  0   13.20800000   -9.90200000   17.94900000 L
 O(PDBName=O,ResName=2,ResNum=16_A)                  0  -35.16400000   -3.13200000  -10.70900000 L
 H(PDBName=H,ResName=2,ResNum=16_A)                  0  -34.30400000   -2.85700000  -11.03600000 L
 H(PDBName=H,ResName=2,ResNum=16_A)                  0  -35.70300000   -2.35600000  -10.53400000 L
 O(PDBName=O,ResName=2,ResNum=17_A)                  0  -12.52500000   10.01800000    8.43100000 L
 H(PDBName=H,ResName=2,ResNum=17_A)                  0  -11.76700000   10.60600000    8.42500000 L
 H(PDBName=H,ResName=2,ResNum=17_A)                  0  -13.07400000   10.19400000    7.66200000 L
 O(PDBName=O,ResName=2,ResNum=18_A)                  0   28.91100000   17.58600000   19.13100000 L
 H(PDBName=H,ResName=2,ResNum=18_A)                  0   29.39700000   18.18000000   19.70800000 L
 H(PDBName=H,ResName=2,ResNum=18_A)                  0   28.02700000   17.93100000   18.98400000 L
 O(PDBName=O,ResName=2,ResNum=19_A)                  0   25.73300000   12.20000000  -20.07400000 L
 H(PDBName=H,ResName=2,ResNum=19_A)                  0   25.34700000   13.07900000  -20.05500000 L
 H(PDBName=H,ResName=2,ResNum=19_A)                  0   26.69000000   12.27100000  -20.11200000 L
 O(PDBName=O,ResName=2,ResNum=20_A)                  0  -18.57200000   -7.89800000  -32.67300000 L
 H(PDBName=H,ResName=2,ResNum=20_A)                  0  -17.62900000   -8.07500000  -32.69200000 L
 H(PDBName=H,ResName=2,ResNum=20_A)                  0  -19.05200000   -8.72500000  -32.57600000 L
 O(PDBName=O,ResName=2,ResNum=21_A)                  0   19.84900000  -23.17000000  -10.60600000 L
 H(PDBName=H,ResName=2,ResNum=21_A)                  0   19.36300000  -22.39800000  -10.90600000 L
 H(PDBName=H,ResName=2,ResNum=21_A)                  0   19.25200000  -23.91800000  -10.53400000 L
 O(PDBName=O,ResName=2,ResNum=22_A)                  0  -18.15400000   -9.58100000  -30.41600000 L
 H(PDBName=H,ResName=2,ResNum=22_A)                  0  -17.45200000   -8.92800000  -30.44800000 L
 H(PDBName=H,ResName=2,ResNum=22_A)                  0  -19.00500000   -9.13700000  -30.38100000 L
 O(PDBName=O,ResName=2,ResNum=23_A)                  0   -0.69100000    7.05800000  -24.96500000 L
 H(PDBName=H,ResName=2,ResNum=23_A)                  0   -1.25200000    6.56900000  -25.57200000 L
 H(PDBName=H,ResName=2,ResNum=23_A)                  0   -0.70900000    6.63700000  -24.10200000 L
 O(PDBName=O,ResName=2,ResNum=24_A)                  0   24.10700000   -2.24000000    5.69500000 L
 H(PDBName=H,ResName=2,ResNum=24_A)                  0   24.71100000   -1.69200000    5.18900000 L
 H(PDBName=H,ResName=2,ResNum=24_A)                  0   24.59300000   -2.70500000    6.38100000 L
 O(PDBName=O,ResName=2,ResNum=25_A)                  0  -10.85800000   -4.35200000   36.42100000 L
 H(PDBName=H,ResName=2,ResNum=25_A)                  0  -11.50100000   -3.86000000   35.90300000 L
 H(PDBName=H,ResName=2,ResNum=25_A)                  0  -11.17000000   -5.25100000   36.55000000 L
 O(PDBName=O,ResName=2,ResNum=26_A)                  0   -4.84600000   -4.11900000   17.07600000 L
 H(PDBName=H,ResName=2,ResNum=26_A)                  0   -4.61200000   -4.63100000   17.85400000 L
 H(PDBName=H,ResName=2,ResNum=26_A)                  0   -5.74100000   -3.78600000   17.16800000 L
 O(PDBName=O,ResName=2,ResNum=27_A)                  0  -10.17200000    4.07600000    9.82600000 L
 H(PDBName=H,ResName=2,ResNum=27_A)                  0  -10.26500000    3.13400000    9.66600000 L
 H(PDBName=H,ResName=2,ResNum=27_A)                  0   -9.31000000    4.36900000    9.52200000 L
 O(PDBName=O,ResName=2,ResNum=28_A)                  0   22.95000000   26.91200000   12.43400000 L
 H(PDBName=H,ResName=2,ResNum=28_A)                  0   23.71700000   26.34400000   12.33300000 L
 H(PDBName=H,ResName=2,ResNum=28_A)                  0   23.23700000   27.81500000   12.58800000 L
 O(PDBName=O,ResName=2,ResNum=29_A)                  0  -23.63500000  -26.49600000  -15.43900000 L
 H(PDBName=H,ResName=2,ResNum=29_A)                  0  -24.35600000  -26.00600000  -15.03600000 L
 H(PDBName=H,ResName=2,ResNum=29_A)                  0  -23.86000000  -26.70900000  -16.34800000 L
 O(PDBName=O,ResName=2,ResNum=30_A)                  0    2.21400000   -5.84000000  -16.81600000 L
 H(PDBName=H,ResName=2,ResNum=30_A)                  0    2.28400000   -6.66700000  -16.33300000 L
 H(PDBName=H,ResName=2,ResNum=30_A)                  0    2.98400000   -5.29600000  -16.63500000 L
 O(PDBName=O,ResName=2,ResNum=31_A)                  0   -6.17700000    0.40700000   22.02200000 L
 H(PDBName=H,ResName=2,ResNum=31_A)                  0   -6.96700000    0.87400000   22.30500000 L
 H(PDBName=H,ResName=2,ResNum=31_A)                  0   -6.36100000   -0.53400000   21.97100000 L
 O(PDBName=O,ResName=2,ResNum=32_A)                  0  -23.58800000    6.05800000    0.71000000 L
 H(PDBName=H,ResName=2,ResNum=32_A)                  0  -23.91800000    5.21300000    0.39600000 L
 H(PDBName=H,ResName=2,ResNum=32_A)                  0  -24.27000000    6.72600000    0.60900000 L
 O(PDBName=O,ResName=2,ResNum=33_A)                  0   10.36000000  -10.05000000   35.36600000 L
 H(PDBName=H,ResName=2,ResNum=33_A)                  0   11.30700000  -10.17800000   35.27000000 L
 H(PDBName=H,ResName=2,ResNum=33_A)                  0   10.19400000   -9.37300000   36.02700000 L
 O(PDBName=O,ResName=2,ResNum=34_A)                  0    4.87400000    8.10400000  -20.77300000 L
 H(PDBName=H,ResName=2,ResNum=34_A)                  0    4.85600000    7.70400000  -19.90000000 L
 H(PDBName=H,ResName=2,ResNum=34_A)                  0    4.07800000    7.86200000  -21.25300000 L
 O(PDBName=O,ResName=2,ResNum=35_A)                  0   24.83600000   27.63600000   -1.55800000 L
 H(PDBName=H,ResName=2,ResNum=35_A)                  0   24.04200000   27.85400000   -2.05200000 L
 H(PDBName=H,ResName=2,ResNum=35_A)                  0   24.79800000   28.04700000   -0.69100000 L
 O(PDBName=O,ResName=2,ResNum=36_A)                  0    9.04200000    4.80200000   10.68200000 L
 H(PDBName=H,ResName=2,ResNum=36_A)                  0    8.31600000    5.15500000   10.16300000 L
 H(PDBName=H,ResName=2,ResNum=36_A)                  0    9.75800000    5.44100000   10.70900000 L
 O(PDBName=O,ResName=2,ResNum=37_A)                  0  -12.90700000   -6.11200000  -31.25100000 L
 H(PDBName=H,ResName=2,ResNum=37_A)                  0  -13.50800000   -6.86000000  -31.26000000 L
 H(PDBName=H,ResName=2,ResNum=37_A)                  0  -13.40700000   -5.29700000  -31.34500000 L
 O(PDBName=O,ResName=2,ResNum=38_A)                  0  -23.35900000   10.31400000  -14.86900000 L
 H(PDBName=H,ResName=2,ResNum=38_A)                  0  -24.11900000   10.02700000  -15.38100000 L
 H(PDBName=H,ResName=2,ResNum=38_A)                  0  -22.85200000    9.54700000  -14.59000000 L
 O(PDBName=O,ResName=2,ResNum=39_A)                  0   -3.14500000   30.17400000  -11.61600000 L
 H(PDBName=H,ResName=2,ResNum=39_A)                  0   -2.35300000   30.69000000  -11.44700000 L
 H(PDBName=H,ResName=2,ResNum=39_A)                  0   -3.06200000   29.31300000  -11.20000000 L
 O(PDBName=O,ResName=2,ResNum=40_A)                  0    5.17100000   18.34300000   -0.24500000 L
 H(PDBName=H,ResName=2,ResNum=40_A)                  0    5.34700000   18.93700000   -0.97800000 L
 H(PDBName=H,ResName=2,ResNum=40_A)                  0    5.99900000   17.98600000    0.08500000 L
 O(PDBName=O,ResName=2,ResNum=41_A)                  0   26.84800000   -4.84300000   -9.74000000 L
 H(PDBName=H,ResName=2,ResNum=41_A)                  0   27.03700000   -5.15100000   -8.85000000 L
 H(PDBName=H,ResName=2,ResNum=41_A)                  0   26.22300000   -5.43900000  -10.16000000 L
 O(PDBName=O,ResName=2,ResNum=42_A)                  0    5.77200000   24.79100000    9.51300000 L
 H(PDBName=H,ResName=2,ResNum=42_A)                  0    6.13200000   25.67200000    9.64400000 L
 H(PDBName=H,ResName=2,ResNum=42_A)                  0    4.81700000   24.84500000    9.42800000 L
 O(PDBName=O,ResName=2,ResNum=43_A)                  0    7.57400000   25.19800000   -4.93300000 L
 H(PDBName=H,ResName=2,ResNum=43_A)                  0    6.68900000   25.54700000   -4.80000000 L
 H(PDBName=H,ResName=2,ResNum=43_A)                  0    7.77800000   25.19100000   -5.87200000 L
 O(PDBName=O,ResName=2,ResNum=44_A)                  0   34.12300000   -2.36500000   -7.11200000 L
 H(PDBName=H,ResName=2,ResNum=44_A)                  0   35.01600000   -2.47900000   -6.77800000 L
 H(PDBName=H,ResName=2,ResNum=44_A)                  0   33.83200000   -1.46400000   -6.95000000 L
 O(PDBName=O,ResName=2,ResNum=45_A)                  0   -5.00300000  -23.11900000   28.09600000 L
 H(PDBName=H,ResName=2,ResNum=45_A)                  0   -5.73400000  -23.74000000   28.06800000 L
 H(PDBName=H,ResName=2,ResNum=45_A)                  0   -4.19100000  -23.56600000   27.84400000 L
 O(PDBName=O,ResName=2,ResNum=46_A)                  0  -20.86400000   28.19500000    2.03700000 L
 H(PDBName=H,ResName=2,ResNum=46_A)                  0  -21.68100000   28.48200000    1.62400000 L
 H(PDBName=H,ResName=2,ResNum=46_A)                  0  -20.38800000   28.95900000    2.37100000 L
 O(PDBName=O,ResName=2,ResNum=47_A)                  0   -4.06100000  -29.28300000   18.71100000 L
 H(PDBName=H,ResName=2,ResNum=47_A)                  0   -3.47300000  -28.52700000   18.78800000 L
 H(PDBName=H,ResName=2,ResNum=47_A)                  0   -3.54300000  -30.07800000   18.56500000 L
 O(PDBName=O,ResName=2,ResNum=48_A)                  0   13.96700000   29.57900000    1.84000000 L
 H(PDBName=H,ResName=2,ResNum=48_A)                  0   14.91600000   29.72400000    1.85900000 L
 H(PDBName=H,ResName=2,ResNum=48_A)                  0   13.55100000   30.25100000    1.29400000 L
 O(PDBName=O,ResName=2,ResNum=49_A)                  0  -10.96800000  -18.40900000   20.48100000 L
 H(PDBName=H,ResName=2,ResNum=49_A)                  0  -10.16500000  -18.93300000   20.51600000 L
 H(PDBName=H,ResName=2,ResNum=49_A)                  0  -11.68000000  -18.88100000   20.92000000 L
 O(PDBName=O,ResName=2,ResNum=50_A)                  0   11.92900000   16.14200000   -3.82800000 L
 H(PDBName=H,ResName=2,ResNum=50_A)                  0   12.45800000   16.31100000   -4.61100000 L
 H(PDBName=H,ResName=2,ResNum=50_A)                  0   11.26500000   16.82900000   -3.73400000 L
 O(PDBName=O,ResName=2,ResNum=51_A)                  0   -4.90400000  -34.73100000   -3.38700000 L
 H(PDBName=H,ResName=2,ResNum=51_A)                  0   -4.14300000  -34.17500000   -3.20200000 L
 H(PDBName=H,ResName=2,ResNum=51_A)                  0   -5.69800000  -34.19200000   -3.40700000 L
 O(PDBName=O,ResName=2,ResNum=52_A)                  0  -12.38300000   -0.03300000  -37.63800000 L
 H(PDBName=H,ResName=2,ResNum=52_A)                  0  -11.71200000    0.64800000  -37.55000000 L
 H(PDBName=H,ResName=2,ResNum=52_A)                  0  -12.02800000   -0.77000000  -38.14100000 L
 O(PDBName=O,ResName=2,ResNum=53_A)                  0    0.48500000   34.06600000   -1.63000000 L
 H(PDBName=H,ResName=2,ResNum=53_A)                  0    0.97200000   34.59600000   -2.26500000 L
 H(PDBName=H,ResName=2,ResNum=53_A)                  0    0.18900000   33.25400000   -2.04900000 L
 O(PDBName=O,ResName=2,ResNum=54_A)                  0   20.35700000   -0.16900000  -25.12700000 L
 H(PDBName=H,ResName=2,ResNum=54_A)                  0   20.41100000   -0.21300000  -26.08500000 L
 H(PDBName=H,ResName=2,ResNum=54_A)                  0   20.14000000   -1.03600000  -24.77700000 L
 O(PDBName=O,ResName=2,ResNum=55_A)                  0  -13.82900000    8.01800000    1.19100000 L
 H(PDBName=H,ResName=2,ResNum=55_A)                  0  -14.75400000    8.27100000    1.24800000 L
 H(PDBName=H,ResName=2,ResNum=55_A)                  0  -13.71900000    7.35800000    0.50200000 L
 O(PDBName=O,ResName=2,ResNum=56_A)                  0  -35.55800000    3.50700000   11.98800000 L
 H(PDBName=H,ResName=2,ResNum=56_A)                  0  -36.29100000    2.91600000   12.17700000 L
 H(PDBName=H,ResName=2,ResNum=56_A)                  0  -35.04100000    3.64200000   12.78600000 L
 O(PDBName=O,ResName=2,ResNum=57_A)                  0  -37.12900000   -3.75200000  -11.48100000 L
 H(PDBName=H,ResName=2,ResNum=57_A)                  0  -36.59200000   -3.88900000  -12.26500000 L
 H(PDBName=H,ResName=2,ResNum=57_A)                  0  -38.05300000   -3.89900000  -11.69400000 L
 O(PDBName=O,ResName=2,ResNum=58_A)                  0  -14.46500000   33.10200000   11.78400000 L
 H(PDBName=H,ResName=2,ResNum=58_A)                  0  -14.25300000   33.37800000   10.88900000 L
 H(PDBName=H,ResName=2,ResNum=58_A)                  0  -14.11300000   32.22300000   11.94100000 L
 O(PDBName=O,ResName=2,ResNum=59_A)                  0    9.68700000    7.78600000   -8.69800000 L
 H(PDBName=H,ResName=2,ResNum=59_A)                  0   10.29100000    8.53200000   -8.69500000 L
 H(PDBName=H,ResName=2,ResNum=59_A)                  0    9.37600000    7.62000000   -7.80500000 L
 O(PDBName=O,ResName=2,ResNum=60_A)                  0   20.01500000    0.99000000   12.52700000 L
 H(PDBName=H,ResName=2,ResNum=60_A)                  0   19.20900000    1.50700000   12.46300000 L
 H(PDBName=H,ResName=2,ResNum=60_A)                  0   19.80200000    0.05500000   12.48100000 L
 O(PDBName=O,ResName=2,ResNum=61_A)                  0    7.42600000  -26.58300000    5.89900000 L
 H(PDBName=H,ResName=2,ResNum=61_A)                  0    8.21800000  -26.45000000    6.42600000 L
 H(PDBName=H,ResName=2,ResNum=61_A)                  0    7.61900000  -26.39700000    4.97700000 L
 O(PDBName=O,ResName=2,ResNum=62_A)                  0   20.85000000  -13.86600000   26.37800000 L
 H(PDBName=H,ResName=2,ResNum=62_A)                  0   20.37600000  -13.06300000   26.15300000 L
 H(PDBName=H,ResName=2,ResNum=62_A)                  0   21.52500000  -13.66800000   27.03200000 L
 O(PDBName=O,ResName=2,ResNum=63_A)                  0   29.76100000    3.34400000   12.73700000 L
 H(PDBName=H,ResName=2,ResNum=63_A)                  0   29.56400000    4.22800000   13.05300000 L
 H(PDBName=H,ResName=2,ResNum=63_A)                  0   29.35300000    3.21200000   11.87800000 L
 O(PDBName=O,ResName=2,ResNum=64_A)                  0   18.34600000   32.95700000  -11.80900000 L
 H(PDBName=H,ResName=2,ResNum=64_A)                  0   17.82500000   33.74700000  -11.97200000 L
 H(PDBName=H,ResName=2,ResNum=64_A)                  0   17.76100000   32.20800000  -11.67600000 L
 O(PDBName=O,ResName=2,ResNum=65_A)                  0    5.43100000   19.33300000   31.76500000 L
 H(PDBName=H,ResName=2,ResNum=65_A)                  0    5.57000000   18.38400000   31.72900000 L
 H(PDBName=H,ResName=2,ResNum=65_A)                  0    4.48900000   19.51900000   31.78700000 L
 O(PDBName=O,ResName=2,ResNum=66_A)                  0  -11.01900000   10.94700000   17.51500000 L
 H(PDBName=H,ResName=2,ResNum=66_A)                  0  -10.14100000   11.18500000   17.21000000 L
 H(PDBName=H,ResName=2,ResNum=66_A)                  0  -11.11600000    9.99200000   17.49900000 L
 O(PDBName=O,ResName=2,ResNum=67_A)                  0   -8.13800000   10.37000000    3.90200000 L
 H(PDBName=H,ResName=2,ResNum=67_A)                  0   -8.64200000   11.18400000    3.82600000 L
 H(PDBName=H,ResName=2,ResNum=67_A)                  0   -7.26600000   10.56400000    4.25500000 L
 O(PDBName=O,ResName=2,ResNum=68_A)                  0   12.41100000   23.92100000  -22.52700000 L
 H(PDBName=H,ResName=2,ResNum=68_A)                  0   11.55400000   24.11400000  -22.14000000 L
 H(PDBName=H,ResName=2,ResNum=68_A)                  0   12.39900000   23.04000000  -22.90800000 L
 O(PDBName=O,ResName=2,ResNum=69_A)                  0   32.93600000    7.77700000    5.66000000 L
 H(PDBName=H,ResName=2,ResNum=69_A)                  0   33.86000000    7.51800000    5.67200000 L
 H(PDBName=H,ResName=2,ResNum=69_A)                  0   32.38300000    6.99900000    5.77000000 L
 O(PDBName=O,ResName=2,ResNum=70_A)                  0  -33.68100000    2.19800000  -19.79500000 L
 H(PDBName=H,ResName=2,ResNum=70_A)                  0  -34.64000000    2.18000000  -19.82400000 L
 H(PDBName=H,ResName=2,ResNum=70_A)                  0  -33.37800000    3.10800000  -19.76700000 L
 O(PDBName=O,ResName=2,ResNum=71_A)                  0    3.71700000   38.21500000    4.96100000 L
 H(PDBName=H,ResName=2,ResNum=71_A)                  0    3.00700000   38.13100000    5.60100000 L
 H(PDBName=H,ResName=2,ResNum=71_A)                  0    4.54300000   38.38900000    5.41800000 L
 O(PDBName=O,ResName=2,ResNum=72_A)                  0  -15.81000000    2.21400000   14.26400000 L
 H(PDBName=H,ResName=2,ResNum=72_A)                  0  -16.42100000    1.77400000   14.85900000 L
 H(PDBName=H,ResName=2,ResNum=72_A)                  0  -15.64200000    1.65300000   13.50300000 L
 O(PDBName=O,ResName=2,ResNum=73_A)                  0    2.32100000   31.06600000    2.00400000 L
 H(PDBName=H,ResName=2,ResNum=73_A)                  0    1.82600000   31.87700000    1.86800000 L
 H(PDBName=H,ResName=2,ResNum=73_A)                  0    3.16500000   31.27100000    2.41500000 L
 O(PDBName=O,ResName=2,ResNum=74_A)                  0    5.51400000   -1.02900000   28.37200000 L
 H(PDBName=H,ResName=2,ResNum=74_A)                  0    6.23800000   -1.59500000   28.09400000 L
 H(PDBName=H,ResName=2,ResNum=74_A)                  0    5.86500000   -0.20700000   28.72200000 L
 O(PDBName=O,ResName=2,ResNum=75_A)                  0   29.48800000   19.49500000    3.02400000 L
 H(PDBName=H,ResName=2,ResNum=75_A)                  0   28.97600000   18.74400000    3.33300000 L
 H(PDBName=H,ResName=2,ResNum=75_A)                  0   30.41600000   19.25100000    2.97100000 L
 O(PDBName=O,ResName=2,ResNum=76_A)                  0   24.57100000   -2.28500000    0.15300000 L
 H(PDBName=H,ResName=2,ResNum=76_A)                  0   23.85500000   -1.66000000    0.01500000 L
 H(PDBName=H,ResName=2,ResNum=76_A)                  0   24.21100000   -3.17000000    0.24600000 L
 O(PDBName=O,ResName=2,ResNum=77_A)                  0   23.10800000  -11.46700000  -10.14900000 L
 H(PDBName=H,ResName=2,ResNum=77_A)                  0   24.01800000  -11.19300000  -10.00900000 L
 H(PDBName=H,ResName=2,ResNum=77_A)                  0   23.03700000  -12.41700000  -10.02500000 L
 O(PDBName=O,ResName=2,ResNum=78_A)                  0   15.03700000   -1.24500000   -2.68200000 L
 H(PDBName=H,ResName=2,ResNum=78_A)                  0   15.99100000   -1.34600000   -2.69700000 L
 H(PDBName=H,ResName=2,ResNum=78_A)                  0   14.62300000   -2.06000000   -2.97700000 L
 O(PDBName=O,ResName=2,ResNum=79_A)                  0   -2.63500000  -26.06300000  -16.35000000 L
 H(PDBName=H,ResName=2,ResNum=79_A)                  0   -3.55600000  -26.33400000  -16.36900000 L
 H(PDBName=H,ResName=2,ResNum=79_A)                  0   -2.58300000  -25.10800000  -16.26300000 L
 O(PDBName=O,ResName=2,ResNum=80_A)                  0    4.35500000   32.46000000   11.08500000 L
 H(PDBName=H,ResName=2,ResNum=80_A)                  0    4.75500000   32.33700000   10.22100000 L
 H(PDBName=H,ResName=2,ResNum=80_A)                  0    4.62800000   31.74800000   11.66900000 L
 O(PDBName=O,ResName=2,ResNum=81_A)                  0   15.36100000   26.75000000   -1.97100000 L
 H(PDBName=H,ResName=2,ResNum=81_A)                  0   15.88600000   27.53300000   -2.15500000 L
 H(PDBName=H,ResName=2,ResNum=81_A)                  0   15.00500000   26.80400000   -1.08100000 L
 O(PDBName=O,ResName=2,ResNum=82_A)                  0  -19.56300000    3.94300000   -3.07300000 L
 H(PDBName=H,ResName=2,ResNum=82_A)                  0  -20.03700000    3.11200000   -2.99000000 L
 H(PDBName=H,ResName=2,ResNum=82_A)                  0  -20.15700000    4.62000000   -3.40600000 L
 O(PDBName=O,ResName=2,ResNum=83_A)                  0   22.65900000   31.07100000    2.08900000 L
 H(PDBName=H,ResName=2,ResNum=83_A)                  0   21.84600000   30.61000000    1.87000000 L
 H(PDBName=H,ResName=2,ResNum=83_A)                  0   23.27400000   30.45900000    2.50200000 L
 O(PDBName=O,ResName=2,ResNum=84_A)                  0   -7.44300000   20.67200000  -30.13900000 L
 H(PDBName=H,ResName=2,ResNum=84_A)                  0   -7.68700000   21.11600000  -29.32400000 L
 H(PDBName=H,ResName=2,ResNum=84_A)                  0   -7.99900000   20.98800000  -30.85500000 L
 O(PDBName=O,ResName=2,ResNum=85_A)                  0   -7.61000000    5.75400000    9.69700000 L
 H(PDBName=H,ResName=2,ResNum=85_A)                  0   -7.14600000    6.57700000    9.87100000 L
 H(PDBName=H,ResName=2,ResNum=85_A)                  0   -7.06200000    5.18600000    9.15000000 L
 O(PDBName=O,ResName=2,ResNum=86_A)                  0  -26.72900000    5.88100000  -23.34500000 L
 H(PDBName=H,ResName=2,ResNum=86_A)                  0  -25.96300000    5.63500000  -23.86900000 L
 H(PDBName=H,ResName=2,ResNum=86_A)                  0  -26.86100000    6.83100000  -23.39600000 L
 O(PDBName=O,ResName=2,ResNum=87_A)                  0   -1.30100000   36.20300000   -9.94200000 L
 H(PDBName=H,ResName=2,ResNum=87_A)                  0   -2.22400000   36.38600000   -9.75300000 L
 H(PDBName=H,ResName=2,ResNum=87_A)                  0   -0.84100000   37.02600000  -10.12500000 L
 O(PDBName=O,ResName=2,ResNum=88_A)                  0   19.39300000   -2.11300000  -26.54400000 L
 H(PDBName=H,ResName=2,ResNum=88_A)                  0   19.12500000   -1.73100000  -27.38300000 L
 H(PDBName=H,ResName=2,ResNum=88_A)                  0   20.32200000   -2.35400000  -26.58400000 L
 O(PDBName=O,ResName=2,ResNum=89_A)                  0    0.19500000    4.80700000  -37.53400000 L
 H(PDBName=H,ResName=2,ResNum=89_A)                  0    1.07600000    4.43000000  -37.58700000 L
 H(PDBName=H,ResName=2,ResNum=89_A)                  0    0.26000000    5.75500000  -37.39500000 L
 O(PDBName=O,ResName=2,ResNum=90_A)                  0   19.96300000  -21.21800000   12.36800000 L
 H(PDBName=H,ResName=2,ResNum=90_A)                  0   20.19700000  -20.29900000   12.21700000 L
 H(PDBName=H,ResName=2,ResNum=90_A)                  0   19.01500000  -21.29100000   12.49900000 L
 O(PDBName=O,ResName=2,ResNum=91_A)                  0   13.15400000   -0.72300000   37.76100000 L
 H(PDBName=H,ResName=2,ResNum=91_A)                  0   12.69300000   -1.56000000   37.66300000 L
 H(PDBName=H,ResName=2,ResNum=91_A)                  0   12.52300000   -0.03300000   37.97900000 L
 O(PDBName=O,ResName=2,ResNum=92_A)                  0    9.39000000   -4.47000000   -1.53700000 L
 H(PDBName=H,ResName=2,ResNum=92_A)                  0    8.47600000   -4.33500000   -1.27600000 L
 H(PDBName=H,ResName=2,ResNum=92_A)                  0    9.42700000   -4.69700000   -2.46900000 L
 O(PDBName=O,ResName=2,ResNum=93_A)                  0    9.01500000   24.14300000   -9.55600000 L
 H(PDBName=H,ResName=2,ResNum=93_A)                  0    9.08600000   25.06800000   -9.80200000 L
 H(PDBName=H,ResName=2,ResNum=93_A)                  0    9.86900000   23.71600000   -9.66200000 L
 O(PDBName=O,ResName=2,ResNum=94_A)                  0    8.12900000   35.55600000   -8.85800000 L
 H(PDBName=H,ResName=2,ResNum=94_A)                  0    9.03900000   35.56700000   -9.16400000 L
 H(PDBName=H,ResName=2,ResNum=94_A)                  0    7.67600000   36.34300000   -9.17000000 L
 O(PDBName=O,ResName=2,ResNum=95_A)                  0   15.66700000   -2.82700000   22.39300000 L
 H(PDBName=H,ResName=2,ResNum=95_A)                  0   15.99500000   -1.93800000   22.24200000 L
 H(PDBName=H,ResName=2,ResNum=95_A)                  0   14.86300000   -2.78800000   22.91700000 L
 O(PDBName=O,ResName=2,ResNum=96_A)                  0   14.07400000   17.66000000   -6.61900000 L
 H(PDBName=H,ResName=2,ResNum=96_A)                  0   13.34500000   17.04500000   -6.51200000 L
 H(PDBName=H,ResName=2,ResNum=96_A)                  0   13.73900000   18.56000000   -6.60800000 L
 O(PDBName=O,ResName=2,ResNum=97_A)                  0   16.73700000  -21.54400000   15.50300000 L
 H(PDBName=H,ResName=2,ResNum=97_A)                  0   17.20600000  -20.71000000   15.42700000 L
 H(PDBName=H,ResName=2,ResNum=97_A)                  0   15.79500000  -21.39500000   15.39500000 L
 O(PDBName=O,ResName=2,ResNum=98_A)                  0    8.07900000   11.71000000    1.82200000 L