%chk=admp.chk
%nproc=1
# oniom(b3lyp/6-31g(d):amber)=embed geom=connectivity ADMP(MaxPoints=500,fullscf,StepSize=5000)

Title Card Required

1 1 1 1 1 1
 C-CM             0    2.35488381    0.76970631   -1.67711897 H
 H-H1             0    2.30935599    1.30206315   -0.75006805 H
 H-H1             0    2.29043913    1.30168269   -2.60326583 H
 N-N3             0    2.50596752   -0.69250851   -1.67836099 H
 H-H              0    2.07967754   -1.07236045   -0.85739244 H
 H-H              0    2.06300933   -1.07269568   -2.49030050 H
 O-OW             0    3.76318786   -2.45600214   -1.83050170 L
 H-HW             0    4.72318787   -2.45576108   -1.83050170 L
 H-HW             0    3.44296051   -1.55098583   -1.83050170 L
 O-OW             0    5.29252828    0.09241638   -2.54372459 L
 H-HW             0    6.25252821    0.09265752   -2.54372459 L
 H-HW             0    4.97230103    0.99743264   -2.54372459 L
 O-OW             0    3.08538209    3.26063032   -2.43515875 L
 H-HW             0    4.04538206    3.26087142   -2.43515875 L
 H-HW             0    2.76515479    4.16564661   -2.43515875 L
 O-OW             0    0.42724150    2.49847835   -1.57320242 L
 H-HW             0    1.38724147    2.49871946   -1.57320242 L
 H-HW             0    0.10701421    3.40349463   -1.57320242 L
 O-OW             0    0.53668868   -0.55648580   -1.10734063 L
 H-HW             0    1.49668864   -0.55624468   -1.10734063 L
 H-HW             0    0.21646140    0.34853048   -1.10734063 L
 O-OW             0    3.34960424    0.45031495    0.46919749 L
 H-HW             0    4.30960428    0.45055597    0.46919749 L
 H-HW             0    3.02937684    1.35533127    0.46919749 L
 O-OW             0    0.22759081   -0.68907573   -3.79175035 L
 H-HW             0    1.18759079   -0.68883464   -3.79175035 L
 H-HW             0   -0.09263650    0.21594056   -3.79175035 L
 O-OW             0    2.62911916   -0.02515549   -4.79776828 L
 H-HW             0    3.58911919   -0.02491445   -4.79776828 L
 H-HW             0    2.30889178    0.87986083   -4.79776828 L
 O-OW             0    0.77822196    0.71612879    1.62526095 L
 H-HW             0    1.73822193    0.71636990    1.62526095 L
 H-HW             0    0.45799467    1.62114507    1.62526095 L
 O-OW             0    6.20367131    0.89016404   -0.54821657 L
 H-HW             0    7.16367125    0.89040516   -0.54821657 L
 H-HW             0    5.88344403    1.79518031   -0.54821657 L
 O-OW             0    5.59842703    0.25950008   -4.76494729 L
 H-HW             0    6.55842703    0.25974115   -4.76494729 L
 H-HW             0    5.27819969    1.16451638   -4.76494729 L
 O-OW             0   -1.13029131    0.23748733   -0.79303350 L
 H-HW             0   -0.17029143    0.23772854   -0.79303350 L
 H-HW             0   -1.45051847    1.14250356   -0.79303350 L

 1 2 1.0 3 1.0 4 1.0
 2
 3
 4 5 1.0 6 1.0
 5
 6
 7 8 1.0 9 1.0
 8
 9
 10 11 1.0 12 1.0
 11
 12
 13 14 1.0 15 1.0
 14
 15
 16 17 1.0 18 1.0
 17
 18
 19 20 1.0 21 1.0
 20
 21
 22 23 1.0 24 1.0
 23
 24
 25 26 1.0 27 1.0
 26
 27
 28 29 1.0 30 1.0
 29
 30
 31 32 1.0 33 1.0
 32
 33
 34 35 1.0 36 1.0
 35
 36
 37 38 1.0 39 1.0
 38
 39
 40 41 1.0 42 1.0
 41
 42

