%nosave
%nproc=20
%mem=58GB
# oniom(b3lyp/6-31g(d):uff)=(embed,inputfiles) geom=connectivity ADMP(MaxPoints=50000,fullscf,StepSize=5000)

Title Card Required

0 1 0 1 0 1
C-C_3(PDBName=C1,ResName=ACN,ResNum=3_X)   -1	39.02100000 31.56600000 20.24100000 L
H-H_(PDBName=H1,ResName=ACN,ResNum=3_X)   -1	38.58600000 30.94200000 19.45700000 L
H-H_(PDBName=H2,ResName=ACN,ResNum=3_X)   -1	38.49000000 31.22100000 21.13000000 L
H-H_(PDBName=H3,ResName=ACN,ResNum=3_X)   -1	40.11300000 31.55400000 20.26900000 L
C-C_1(PDBName=C2,ResName=ACN,ResNum=3_X)   -1	38.51300000 32.88900000 20.13600000 L
N-N_1(PDBName=N1,ResName=ACN,ResNum=3_X)   -1	38.23800000 33.99800000 19.95900000 L
C-C_3(PDBName=C1,ResName=ACN,ResNum=4_X)   -1	15.28600000 12.55800000 30.15300000 L
H-H_(PDBName=H1,ResName=ACN,ResNum=4_X)   -1	15.85700000 12.33100000 29.25100000 L
H-H_(PDBName=H2,ResName=ACN,ResNum=4_X)   -1	14.97700000 11.57000000 30.49900000 L
H-H_(PDBName=H3,ResName=ACN,ResNum=4_X)   -1	15.93700000 12.93100000 30.94700000 L
C-C_1(PDBName=C2,ResName=ACN,ResNum=4_X)   -1	14.01200000 13.39700000 29.95600000 L
N-N_1(PDBName=N1,ResName=ACN,ResNum=4_X)   -1	13.15100000 14.07300000 29.63400000 L
C-C_3(PDBName=C1,ResName=ACN,ResNum=5_X)    0	13.33700000 32.49800000 37.12800000 L
H-H_(PDBName=H1,ResName=ACN,ResNum=5_X)    0	13.54700000 32.38200000 36.06300000 L
H-H_(PDBName=H2,ResName=ACN,ResNum=5_X)    0	12.40900000 33.07100000 37.07000000 L
H-H_(PDBName=H3,ResName=ACN,ResNum=5_X)    0	13.24900000 31.51800000 37.60100000 L
C-C_1(PDBName=C2,ResName=ACN,ResNum=5_X)    0	14.30900000 33.31800000 37.81900000 L
N-N_1(PDBName=N1,ResName=ACN,ResNum=5_X)    0	15.17800000 33.78800000 38.34700000 L
C-C_3(PDBName=C1,ResName=ACN,ResNum=7_X)   -1	39.70900000 16.14600000 41.62200000 L
H-H_(PDBName=H1,ResName=ACN,ResNum=7_X)   -1	39.07300000 16.56900000 42.40200000 L
H-H_(PDBName=H2,ResName=ACN,ResNum=7_X)   -1	39.86800000 16.84600000 40.79900000 L
H-H_(PDBName=H3,ResName=ACN,ResNum=7_X)   -1	40.71400000 15.86400000 41.94300000 L
C-C_1(PDBName=C2,ResName=ACN,ResNum=7_X)   -1	39.09500000 14.89500000 41.03000000 L
N-N_1(PDBName=N1,ResName=ACN,ResNum=7_X)   -1	38.51200000 14.02800000 40.58900000 L
C-C_3(PDBName=C1,ResName=ACN,ResNum=9_X)    0	35.95000000 11.68600000 35.12900000 L
H-H_(PDBName=H1,ResName=ACN,ResNum=9_X)    0	36.61500000 10.98700000 35.64000000 L
H-H_(PDBName=H2,ResName=ACN,ResNum=9_X)    0	36.12100000 11.50800000 34.06500000 L
H-H_(PDBName=H3,ResName=ACN,ResNum=9_X)    0	34.89100000 11.53800000 35.35200000 L
C-C_1(PDBName=C2,ResName=ACN,ResNum=9_X)    0	36.25500000 13.05000000 35.44000000 L
N-N_1(PDBName=N1,ResName=ACN,ResNum=9_X)    0	36.56400000 14.12300000 35.56900000 L
C-C_3(PDBName=C1,ResName=ACN,ResNum=10_X)   -1	33.62300000 18.67500000 46.85000000 L
H-H_(PDBName=H1,ResName=ACN,ResNum=10_X)   -1	33.73300000 19.56000000 47.48100000 L
H-H_(PDBName=H2,ResName=ACN,ResNum=10_X)   -1	32.90300000 17.99500000 47.31000000 L
H-H_(PDBName=H3,ResName=ACN,ResNum=10_X)   -1	33.29100000 19.00500000 45.86300000 L
C-C_1(PDBName=C2,ResName=ACN,ResNum=10_X)   -1	34.93100000 17.98200000 46.58200000 L
N-N_1(PDBName=N1,ResName=ACN,ResNum=10_X)   -1	35.85900000 17.34400000 46.40100000 L
C-C_3(PDBName=C1,ResName=ACN,ResNum=13_X)   -1	24.06000000 4.84600000 16.77700000 L
H-H_(PDBName=H1,ResName=ACN,ResNum=13_X)   -1	24.56600000 5.32200000 17.61900000 L
H-H_(PDBName=H2,ResName=ACN,ResNum=13_X)   -1	23.03600000 5.22200000 16.82300000 L
H-H_(PDBName=H3,ResName=ACN,ResNum=13_X)   -1	24.50900000 5.27500000 15.87900000 L
C-C_1(PDBName=C2,ResName=ACN,ResNum=13_X)   -1	24.19400000 3.42200000 16.74100000 L
N-N_1(PDBName=N1,ResName=ACN,ResNum=13_X)   -1	24.29000000 2.31300000 16.71000000 L
C-C_3(PDBName=C1,ResName=ACN,ResNum=15_X)   -1	33.78600000 25.56100000 3.08100000 L
H-H_(PDBName=H1,ResName=ACN,ResNum=15_X)   -1	34.14800000 25.99400000 4.01500000 L
H-H_(PDBName=H2,ResName=ACN,ResNum=15_X)   -1	33.70900000 26.26800000 2.25200000 L
H-H_(PDBName=H3,ResName=ACN,ResNum=15_X)   -1	34.57000000 24.87300000 2.75800000 L
C-C_1(PDBName=C2,ResName=ACN,ResNum=15_X)   -1	32.52200000 24.83200000 3.31000000 L
N-N_1(PDBName=N1,ResName=ACN,ResNum=15_X)   -1	31.50000000 24.32000000 3.44400000 L
C-C_3(PDBName=C1,ResName=ACN,ResNum=18_X)   -1	12.00100000 13.31600000 33.71600000 L
H-H_(PDBName=H1,ResName=ACN,ResNum=18_X)   -1	11.93700000 12.24800000 33.49500000 L
H-H_(PDBName=H2,ResName=ACN,ResNum=18_X)   -1	11.37100000 13.91600000 33.05600000 L
H-H_(PDBName=H3,ResName=ACN,ResNum=18_X)   -1	11.56700000 13.63800000 34.66400000 L
C-C_1(PDBName=C2,ResName=ACN,ResNum=18_X)   -1	13.39200000 13.76200000 33.76900000 L
N-N_1(PDBName=N1,ResName=ACN,ResNum=18_X)   -1	14.48000000 14.06200000 33.65000000 L
C-C_3(PDBName=C1,ResName=ACN,ResNum=20_X)   -1	24.30100000 19.54900000 15.11700000 L
H-H_(PDBName=H1,ResName=ACN,ResNum=20_X)   -1	24.85900000 20.04500000 15.91400000 L
H-H_(PDBName=H2,ResName=ACN,ResNum=20_X)   -1	23.28200000 19.90100000 14.94500000 L
H-H_(PDBName=H3,ResName=ACN,ResNum=20_X)   -1	24.80900000 19.59900000 14.15200000 L
C-C_1(PDBName=C2,ResName=ACN,ResNum=20_X)   -1	24.14100000 18.13200000 15.53800000 L
N-N_1(PDBName=N1,ResName=ACN,ResNum=20_X)   -1	24.05800000 17.04100000 15.89300000 L
C-C_3(PDBName=C1,ResName=ACN,ResNum=21_X)    0	14.81000000 21.21300000 33.81900000 L
H-H_(PDBName=H1,ResName=ACN,ResNum=21_X)    0	14.00200000 20.87100000 34.46800000 L
H-H_(PDBName=H2,ResName=ACN,ResNum=21_X)    0	15.47700000 20.45600000 33.40000000 L
H-H_(PDBName=H3,ResName=ACN,ResNum=21_X)    0	14.29000000 21.67900000 32.98000000 L
C-C_1(PDBName=C2,ResName=ACN,ResNum=21_X)    0	15.78200000 22.17000000 34.40000000 L
N-N_1(PDBName=N1,ResName=ACN,ResNum=21_X)    0	16.60000000 22.83500000 34.83300000 L
C-C_3(PDBName=C1,ResName=ACN,ResNum=22_X)    0	15.98300000 30.03100000 18.04800000 L
H-H_(PDBName=H1,ResName=ACN,ResNum=22_X)    0	16.64900000 30.66300000 18.63900000 L
H-H_(PDBName=H2,ResName=ACN,ResNum=22_X)    0	16.27100000 29.00100000 18.26800000 L
H-H_(PDBName=H3,ResName=ACN,ResNum=22_X)    0	14.94400000 30.23500000 18.31500000 L
C-C_1(PDBName=C2,ResName=ACN,ResNum=22_X)    0	16.04900000 30.18900000 16.63300000 L
N-N_1(PDBName=N1,ResName=ACN,ResNum=22_X)    0	16.17400000 30.34700000 15.51200000 L
C-C_3(PDBName=C1,ResName=ACN,ResNum=23_X)   -1	2.61900000 26.12900000 17.89300000 L
H-H_(PDBName=H1,ResName=ACN,ResNum=23_X)   -1	2.58000000 26.55200000 16.88700000 L
H-H_(PDBName=H2,ResName=ACN,ResNum=23_X)   -1	1.83300000 26.37200000 18.61100000 L
H-H_(PDBName=H3,ResName=ACN,ResNum=23_X)   -1	2.65700000 25.04200000 17.80200000 L
C-C_1(PDBName=C2,ResName=ACN,ResNum=23_X)   -1	3.89200000 26.66500000 18.45700000 L
N-N_1(PDBName=N1,ResName=ACN,ResNum=23_X)   -1	4.84100000 27.12900000 18.91400000 L
C-C_3(PDBName=C1,ResName=ACN,ResNum=24_X)   -1	19.83100000 19.40500000 10.91000000 L
H-H_(PDBName=H1,ResName=ACN,ResNum=24_X)   -1	19.76300000 20.37300000 10.41000000 L
H-H_(PDBName=H2,ResName=ACN,ResNum=24_X)   -1	18.83600000 19.19800000 11.30900000 L
H-H_(PDBName=H3,ResName=ACN,ResNum=24_X)   -1	20.07100000 18.66900000 10.14000000 L
C-C_1(PDBName=C2,ResName=ACN,ResNum=24_X)   -1	20.72900000 19.57400000 12.08100000 L
N-N_1(PDBName=N1,ResName=ACN,ResNum=24_X)   -1	21.52700000 19.61800000 12.90800000 L
C-C_3(PDBName=C1,ResName=ACN,ResNum=26_X)   -1	29.16400000 9.40100000 41.03100000 L
H-H_(PDBName=H1,ResName=ACN,ResNum=26_X)   -1	30.06500000 9.17000000 41.60300000 L
H-H_(PDBName=H2,ResName=ACN,ResNum=26_X)   -1	29.41100000 10.16900000 40.29500000 L
H-H_(PDBName=H3,ResName=ACN,ResNum=26_X)   -1	28.71600000 8.57600000 40.47300000 L
C-C_1(PDBName=C2,ResName=ACN,ResNum=26_X)   -1	28.12200000 9.86000000 41.94200000 L
N-N_1(PDBName=N1,ResName=ACN,ResNum=26_X)   -1	27.29400000 10.18200000 42.64100000 L
C-C_3(PDBName=C1,ResName=ACN,ResNum=28_X)    0	8.07500000 35.31700000 32.99100000 L
H-H_(PDBName=H1,ResName=ACN,ResNum=28_X)    0	8.05900000 34.22500000 33.00700000 L
H-H_(PDBName=H2,ResName=ACN,ResNum=28_X)    0	8.27200000 35.56900000 34.03400000 L
H-H_(PDBName=H3,ResName=ACN,ResNum=28_X)    0	8.82500000 35.68800000 32.28900000 L
C-C_1(PDBName=C2,ResName=ACN,ResNum=28_X)    0	6.71100000 35.66900000 32.58300000 L
N-N_1(PDBName=N1,ResName=ACN,ResNum=28_X)    0	5.73900000 36.07600000 32.16200000 L
C-C_3(PDBName=C1,ResName=ACN,ResNum=29_X)   -1	31.74200000 29.52100000 46.57300000 L
H-H_(PDBName=H1,ResName=ACN,ResNum=29_X)   -1	32.67200000 29.65000000 46.01600000 L
H-H_(PDBName=H2,ResName=ACN,ResNum=29_X)   -1	31.40900000 28.49000000 46.43400000 L
H-H_(PDBName=H3,ResName=ACN,ResNum=29_X)   -1	31.99900000 29.66100000 47.62500000 L
C-C_1(PDBName=C2,ResName=ACN,ResNum=29_X)   -1	30.69200000 30.45700000 46.25100000 L
N-N_1(PDBName=N1,ResName=ACN,ResNum=29_X)   -1	29.87600000 31.14500000 45.96100000 L
C-C_3(PDBName=C1,ResName=ACN,ResNum=31_X)    0	21.10200000 34.70200000 33.53200000 L
H-H_(PDBName=H1,ResName=ACN,ResNum=31_X)    0	21.46800000 35.72500000 33.42400000 L
H-H_(PDBName=H2,ResName=ACN,ResNum=31_X)    0	20.33800000 34.78500000 34.30800000 L
H-H_(PDBName=H3,ResName=ACN,ResNum=31_X)    0	20.62800000 34.42400000 32.58800000 L
C-C_1(PDBName=C2,ResName=ACN,ResNum=31_X)    0	22.15200000 33.71800000 33.92600000 L
N-N_1(PDBName=N1,ResName=ACN,ResNum=31_X)    0	22.89700000 32.95100000 34.35000000 L
C-C_3(PDBName=C1,ResName=ACN,ResNum=32_X)   -1	15.84600000 39.74700000 10.77200000 L
H-H_(PDBName=H1,ResName=ACN,ResNum=32_X)   -1	16.38200000 39.04000000 11.40800000 L
H-H_(PDBName=H2,ResName=ACN,ResNum=32_X)   -1	16.30200000 40.73500000 10.86800000 L
H-H_(PDBName=H3,ResName=ACN,ResNum=32_X)   -1	15.62500000 39.30600000 9.79800000 L
C-C_1(PDBName=C2,ResName=ACN,ResNum=32_X)   -1	14.56600000 39.80800000 11.37100000 L
N-N_1(PDBName=N1,ResName=ACN,ResNum=32_X)   -1	13.59600000 39.99200000 11.89200000 L
C-C_3(PDBName=C1,ResName=ACN,ResNum=33_X)   -1	7.87900000 25.39000000 18.67800000 L
H-H_(PDBName=H1,ResName=ACN,ResNum=33_X)   -1	8.89200000 24.99900000 18.78700000 L
H-H_(PDBName=H2,ResName=ACN,ResNum=33_X)   -1	7.49400000 26.03700000 19.46900000 L
H-H_(PDBName=H3,ResName=ACN,ResNum=33_X)   -1	7.88400000 25.92400000 17.72600000 L
C-C_1(PDBName=C2,ResName=ACN,ResNum=33_X)   -1	7.02800000 24.20500000 18.58200000 L
N-N_1(PDBName=N1,ResName=ACN,ResNum=33_X)   -1	6.38300000 23.27000000 18.40500000 L
C-C_3(PDBName=C1,ResName=ACN,ResNum=34_X)   -1	6.47200000 31.40400000 37.67500000 L
H-H_(PDBName=H1,ResName=ACN,ResNum=34_X)   -1	7.21700000 31.25000000 38.45800000 L
H-H_(PDBName=H2,ResName=ACN,ResNum=34_X)   -1	5.58800000 31.54900000 38.30000000 L
H-H_(PDBName=H3,ResName=ACN,ResNum=34_X)   -1	6.51700000 32.25000000 36.98600000 L
C-C_1(PDBName=C2,ResName=ACN,ResNum=34_X)   -1	6.38200000 30.13800000 36.92500000 L
N-N_1(PDBName=N1,ResName=ACN,ResNum=34_X)   -1	6.36600000 29.12300000 36.38300000 L
C-C_3(PDBName=C1,ResName=ACN,ResNum=36_X)   -1	12.68100000 8.27300000 16.70200000 L
H-H_(PDBName=H1,ResName=ACN,ResNum=36_X)   -1	12.19800000 7.98100000 17.63600000 L
H-H_(PDBName=H2,ResName=ACN,ResNum=36_X)   -1	13.12200000 9.26000000 16.85100000 L
H-H_(PDBName=H3,ResName=ACN,ResNum=36_X)   -1	13.45400000 7.55900000 16.41000000 L
C-C_1(PDBName=C2,ResName=ACN,ResNum=36_X)   -1	11.65200000 8.46100000 15.63900000 L
N-N_1(PDBName=N1,ResName=ACN,ResNum=36_X)   -1	11.05600000 8.56000000 14.70400000 L
C-C_3(PDBName=C1,ResName=ACN,ResNum=37_X)    0	30.61600000 25.44200000 39.10800000 L
H-H_(PDBName=H1,ResName=ACN,ResNum=37_X)    0	29.73400000 24.85000000 38.85400000 L
H-H_(PDBName=H2,ResName=ACN,ResNum=37_X)    0	31.26000000 25.47400000 38.22700000 L
H-H_(PDBName=H3,ResName=ACN,ResNum=37_X)    0	30.30700000 26.45400000 39.37600000 L
C-C_1(PDBName=C2,ResName=ACN,ResNum=37_X)    0	31.35200000 24.84800000 40.24000000 L
N-N_1(PDBName=N1,ResName=ACN,ResNum=37_X)    0	31.89700000 24.30600000 41.07700000 L
C-C_3(PDBName=C1,ResName=ACN,ResNum=39_X)   -1	33.12400000 17.33200000 4.58200000 L
H-H_(PDBName=H1,ResName=ACN,ResNum=39_X)   -1	34.15900000 17.65500000 4.44900000 L
H-H_(PDBName=H2,ResName=ACN,ResNum=39_X)   -1	33.20200000 16.43700000 5.20300000 L
H-H_(PDBName=H3,ResName=ACN,ResNum=39_X)   -1	32.44900000 18.09100000 4.98500000 L
C-C_1(PDBName=C2,ResName=ACN,ResNum=39_X)   -1	32.58700000 16.99300000 3.29000000 L
N-N_1(PDBName=N1,ResName=ACN,ResNum=39_X)   -1	32.33900000 16.74700000 2.18700000 L
C-C_3(PDBName=C1,ResName=ACN,ResNum=40_X)   -1	29.97200000 47.34700000 38.06100000 L
H-H_(PDBName=H1,ResName=ACN,ResNum=40_X)   -1	30.61100000 47.61800000 37.21800000 L
H-H_(PDBName=H2,ResName=ACN,ResNum=40_X)   -1	28.96700000 47.74100000 37.89300000 L
H-H_(PDBName=H3,ResName=ACN,ResNum=40_X)   -1	29.95100000 46.27100000 38.24600000 L
C-C_1(PDBName=C2,ResName=ACN,ResNum=40_X)   -1	30.36300000 47.90100000 39.41000000 L
N-N_1(PDBName=N1,ResName=ACN,ResNum=40_X)   -1	30.71600000 48.36900000 40.39800000 L
C-C_3(PDBName=C1,ResName=ACN,ResNum=41_X)   -1	45.18600000 25.02200000 38.48800000 L
H-H_(PDBName=H1,ResName=ACN,ResNum=41_X)   -1	44.75700000 25.40500000 39.41600000 L
H-H_(PDBName=H2,ResName=ACN,ResNum=41_X)   -1	44.41800000 24.97700000 37.71300000 L
H-H_(PDBName=H3,ResName=ACN,ResNum=41_X)   -1	45.93500000 25.76700000 38.21100000 L
C-C_1(PDBName=C2,ResName=ACN,ResNum=41_X)   -1	45.70600000 23.71400000 38.72300000 L
N-N_1(PDBName=N1,ResName=ACN,ResNum=41_X)   -1	46.09000000 22.66500000 38.89700000 L
C-C_3(PDBName=C1,ResName=ACN,ResNum=43_X)   -1	3.36200000 33.11200000 30.47300000 L
H-H_(PDBName=H1,ResName=ACN,ResNum=43_X)   -1	4.26000000 33.59700000 30.86200000 L
H-H_(PDBName=H2,ResName=ACN,ResNum=43_X)   -1	2.67300000 32.87500000 31.28600000 L
H-H_(PDBName=H3,ResName=ACN,ResNum=43_X)   -1	2.96700000 33.80400000 29.72700000 L
C-C_1(PDBName=C2,ResName=ACN,ResNum=43_X)   -1	3.67900000 31.87400000 29.97100000 L
N-N_1(PDBName=N1,ResName=ACN,ResNum=43_X)   -1	4.04200000 30.87000000 29.55900000 L
C-C_3(PDBName=C1,ResName=ACN,ResNum=44_X)    0	34.95000000 18.14000000 38.23100000 L
H-H_(PDBName=H1,ResName=ACN,ResNum=44_X)    0	34.12500000 17.50000000 37.91200000 L
H-H_(PDBName=H2,ResName=ACN,ResNum=44_X)    0	34.89700000 18.18700000 39.32100000 L
H-H_(PDBName=H3,ResName=ACN,ResNum=44_X)    0	35.92100000 17.77300000 37.89100000 L
C-C_1(PDBName=C2,ResName=ACN,ResNum=44_X)    0	34.72900000 19.49500000 37.61300000 L
N-N_1(PDBName=N1,ResName=ACN,ResNum=44_X)    0	34.48600000 20.47200000 37.05500000 L
C-C_3(PDBName=C1,ResName=ACN,ResNum=46_X)   -1	1.87900000 22.17400000 29.73900000 L
H-H_(PDBName=H1,ResName=ACN,ResNum=46_X)   -1	0.85000000 22.29800000 29.39400000 L
H-H_(PDBName=H2,ResName=ACN,ResNum=46_X)   -1	2.63400000 22.12300000 28.95100000 L
H-H_(PDBName=H3,ResName=ACN,ResNum=46_X)   -1	2.07700000 22.94400000 30.48600000 L
C-C_1(PDBName=C2,ResName=ACN,ResNum=46_X)   -1	1.96200000 20.88600000 30.46400000 L
N-N_1(PDBName=N1,ResName=ACN,ResNum=46_X)   -1	1.94400000 19.84300000 30.95100000 L
C-C_3(PDBName=C1,ResName=ACN,ResNum=47_X)   -1	6.13500000 25.68000000 36.05600000 L
H-H_(PDBName=H1,ResName=ACN,ResNum=47_X)   -1	6.26800000 26.46300000 36.80500000 L
H-H_(PDBName=H2,ResName=ACN,ResNum=47_X)   -1	6.89300000 24.89600000 36.12400000 L
H-H_(PDBName=H3,ResName=ACN,ResNum=47_X)   -1	5.18600000 25.22300000 36.34100000 L
C-C_1(PDBName=C2,ResName=ACN,ResNum=47_X)   -1	5.98800000 26.33400000 34.78700000 L
N-N_1(PDBName=N1,ResName=ACN,ResNum=47_X)   -1	5.84800000 26.77100000 33.76300000 L
C-C_3(PDBName=C1,ResName=ACN,ResNum=48_X)    0	39.24600000 12.97600000 32.95800000 L
H-H_(PDBName=H1,ResName=ACN,ResNum=48_X)    0	39.46000000 13.77700000 32.24700000 L
H-H_(PDBName=H2,ResName=ACN,ResNum=48_X)    0	39.83500000 13.20000000 33.85000000 L
H-H_(PDBName=H3,ResName=ACN,ResNum=48_X)    0	38.18300000 12.98500000 33.20700000 L
C-C_1(PDBName=C2,ResName=ACN,ResNum=48_X)    0	39.62800000 11.67900000 32.35900000 L
N-N_1(PDBName=N1,ResName=ACN,ResNum=48_X)    0	40.01200000 10.69900000 31.90300000 L
C-C_3(PDBName=C1,ResName=ACN,ResNum=49_X)   -1	32.13800000 41.55900000 43.48500000 L
H-H_(PDBName=H1,ResName=ACN,ResNum=49_X)   -1	31.24700000 41.24100000 44.03000000 L
H-H_(PDBName=H2,ResName=ACN,ResNum=49_X)   -1	31.99500000 41.38700000 42.41700000 L
H-H_(PDBName=H3,ResName=ACN,ResNum=49_X)   -1	32.22000000 42.64600000 43.42000000 L
C-C_1(PDBName=C2,ResName=ACN,ResNum=49_X)   -1	33.41700000 41.08800000 43.96500000 L
N-N_1(PDBName=N1,ResName=ACN,ResNum=49_X)   -1	34.38700000 40.61200000 44.20700000 L
C-C_3(PDBName=C1,ResName=ACN,ResNum=53_X)   -1	45.06300000 33.18200000 18.29400000 L
H-H_(PDBName=H1,ResName=ACN,ResNum=53_X)   -1	43.98800000 33.36200000 18.23600000 L
H-H_(PDBName=H2,ResName=ACN,ResNum=53_X)   -1	45.41300000 32.17300000 18.52100000 L
H-H_(PDBName=H3,ResName=ACN,ResNum=53_X)   -1	45.32300000 33.47200000 17.27400000 L
C-C_1(PDBName=C2,ResName=ACN,ResNum=53_X)   -1	45.65600000 34.21900000 19.15100000 L
N-N_1(PDBName=N1,ResName=ACN,ResNum=53_X)   -1	46.09000000 35.05900000 19.80700000 L
C-C_3(PDBName=C1,ResName=ACN,ResNum=55_X)   -1	41.81500000 41.00100000 13.90200000 L
H-H_(PDBName=H1,ResName=ACN,ResNum=55_X)   -1	41.67000000 40.82100000 12.83500000 L
H-H_(PDBName=H2,ResName=ACN,ResNum=55_X)   -1	41.14900000 40.44100000 14.56100000 L
H-H_(PDBName=H3,ResName=ACN,ResNum=55_X)   -1	42.85000000 40.76400000 14.15800000 L
C-C_1(PDBName=C2,ResName=ACN,ResNum=55_X)   -1	41.58800000 42.45400000 14.12900000 L
N-N_1(PDBName=N1,ResName=ACN,ResNum=55_X)   -1	41.30000000 43.51500000 14.26400000 L
C-C_3(PDBName=C1,ResName=ACN,ResNum=57_X)    0	15.97600000 17.51900000 25.05400000 L
H-H_(PDBName=H1,ResName=ACN,ResNum=57_X)    0	15.83300000 17.19000000 24.02200000 L
H-H_(PDBName=H2,ResName=ACN,ResNum=57_X)    0	15.43000000 16.86700000 25.74000000 L
H-H_(PDBName=H3,ResName=ACN,ResNum=57_X)    0	17.02000000 17.34300000 25.32300000 L
C-C_1(PDBName=C2,ResName=ACN,ResNum=57_X)    0	15.49500000 18.88200000 25.13500000 L
N-N_1(PDBName=N1,ResName=ACN,ResNum=57_X)    0	15.25200000 19.95800000 25.30000000 L
C-C_3(PDBName=C1,ResName=ACN,ResNum=58_X)    0	13.50700000 26.72400000 16.52800000 L
H-H_(PDBName=H1,ResName=ACN,ResNum=58_X)    0	12.68800000 26.65000000 17.24600000 L
H-H_(PDBName=H2,ResName=ACN,ResNum=58_X)    0	13.80200000 27.74400000 16.27000000 L
H-H_(PDBName=H3,ResName=ACN,ResNum=58_X)    0	14.34700000 26.15800000 16.93700000 L
C-C_1(PDBName=C2,ResName=ACN,ResNum=58_X)    0	13.10600000 26.07000000 15.25700000 L
N-N_1(PDBName=N1,ResName=ACN,ResNum=58_X)    0	12.86800000 25.56000000 14.28400000 L
C-C_3(PDBName=C1,ResName=ACN,ResNum=59_X)    0	17.38700000 42.07800000 28.64500000 L
H-H_(PDBName=H1,ResName=ACN,ResNum=59_X)    0	16.40000000 41.70200000 28.37100000 L
H-H_(PDBName=H2,ResName=ACN,ResNum=59_X)    0	17.87200000 42.59500000 27.81400000 L
H-H_(PDBName=H3,ResName=ACN,ResNum=59_X)    0	17.22200000 42.85900000 29.39000000 L
C-C_1(PDBName=C2,ResName=ACN,ResNum=59_X)    0	18.19600000 41.02200000 29.23300000 L
N-N_1(PDBName=N1,ResName=ACN,ResNum=59_X)    0	18.75000000 40.08500000 29.50700000 L
C-C_3(PDBName=C1,ResName=ACN,ResNum=61_X)    0	23.94300000 35.10900000 37.44400000 L
H-H_(PDBName=H1,ResName=ACN,ResNum=61_X)    0	24.22700000 34.48800000 38.29600000 L
H-H_(PDBName=H2,ResName=ACN,ResNum=61_X)    0	24.43200000 36.05500000 37.68300000 L
H-H_(PDBName=H3,ResName=ACN,ResNum=61_X)    0	24.26900000 34.72900000 36.47300000 L
C-C_1(PDBName=C2,ResName=ACN,ResNum=61_X)    0	22.53300000 35.31700000 37.40300000 L
N-N_1(PDBName=N1,ResName=ACN,ResNum=61_X)    0	21.42100000 35.52200000 37.35500000 L
C-C_3(PDBName=C1,ResName=ACN,ResNum=64_X)   -1	34.02100000 6.59700000 13.34600000 L
H-H_(PDBName=H1,ResName=ACN,ResNum=64_X)   -1	34.84000000 6.64300000 12.62500000 L
H-H_(PDBName=H2,ResName=ACN,ResNum=64_X)   -1	34.16600000 7.34100000 14.13300000 L
H-H_(PDBName=H3,ResName=ACN,ResNum=64_X)   -1	33.06400000 6.79900000 12.86100000 L
C-C_1(PDBName=C2,ResName=ACN,ResNum=64_X)   -1	34.10600000 5.28000000 13.92800000 L
N-N_1(PDBName=N1,ResName=ACN,ResNum=64_X)   -1	34.13000000 4.20100000 14.30200000 L
C-C_3(PDBName=C1,ResName=ACN,ResNum=66_X)   -1	27.87000000 33.47100000 16.32300000 L
H-H_(PDBName=H1,ResName=ACN,ResNum=66_X)   -1	27.52000000 34.30800000 15.71600000 L
H-H_(PDBName=H2,ResName=ACN,ResNum=66_X)   -1	28.91200000 33.20200000 16.13700000 L
H-H_(PDBName=H3,ResName=ACN,ResNum=66_X)   -1	27.82100000 33.73000000 17.38300000 L
C-C_1(PDBName=C2,ResName=ACN,ResNum=66_X)   -1	26.98500000 32.41000000 16.04200000 L
N-N_1(PDBName=N1,ResName=ACN,ResNum=66_X)   -1	26.22900000 31.58300000 15.76300000 L
C-C_3(PDBName=C1,ResName=ACN,ResNum=68_X)   -1	49.89800000 25.11500000 27.52200000 L
H-H_(PDBName=H1,ResName=ACN,ResNum=68_X)   -1	49.02300000 25.74100000 27.33600000 L
H-H_(PDBName=H2,ResName=ACN,ResNum=68_X)   -1	50.48000000 25.79600000 28.14700000 L
H-H_(PDBName=H3,ResName=ACN,ResNum=68_X)   -1	49.56400000 24.28500000 28.14800000 L
C-C_1(PDBName=C2,ResName=ACN,ResNum=68_X)   -1	50.50300000 24.82200000 26.22400000 L
N-N_1(PDBName=N1,ResName=ACN,ResNum=68_X)   -1	50.90500000 24.52400000 25.19300000 L
C-C_3(PDBName=C1,ResName=ACN,ResNum=69_X)   -1	40.85000000 23.21900000 13.35100000 L
H-H_(PDBName=H1,ResName=ACN,ResNum=69_X)   -1	41.79600000 23.20800000 12.80400000 L
H-H_(PDBName=H2,ResName=ACN,ResNum=69_X)   -1	40.27000000 22.33300000 13.08600000 L
H-H_(PDBName=H3,ResName=ACN,ResNum=69_X)   -1	40.97200000 23.33600000 14.43000000 L
C-C_1(PDBName=C2,ResName=ACN,ResNum=69_X)   -1	40.05400000 24.40800000 12.93500000 L
N-N_1(PDBName=N1,ResName=ACN,ResNum=69_X)   -1	39.38900000 25.28900000 12.68800000 L
C-C_3(PDBName=C1,ResName=ACN,ResNum=70_X)   -1	40.91400000 34.08000000 28.91200000 L
H-H_(PDBName=H1,ResName=ACN,ResNum=70_X)   -1	40.11700000 34.26500000 29.63500000 L
H-H_(PDBName=H2,ResName=ACN,ResNum=70_X)   -1	40.57900000 33.26000000 28.27400000 L
H-H_(PDBName=H3,ResName=ACN,ResNum=70_X)   -1	41.16900000 35.04000000 28.45900000 L
C-C_1(PDBName=C2,ResName=ACN,ResNum=70_X)   -1	42.06100000 33.51400000 29.67100000 L
N-N_1(PDBName=N1,ResName=ACN,ResNum=70_X)   -1	42.99700000 33.11200000 30.17200000 L
C-C_3(PDBName=C1,ResName=ACN,ResNum=71_X)   -1	45.05400000 37.39700000 35.71900000 L
H-H_(PDBName=H1,ResName=ACN,ResNum=71_X)   -1	44.06500000 36.93900000 35.78100000 L
H-H_(PDBName=H2,ResName=ACN,ResNum=71_X)   -1	45.47900000 37.50300000 34.71900000 L
H-H_(PDBName=H3,ResName=ACN,ResNum=71_X)   -1	44.95400000 38.39000000 36.16200000 L
C-C_1(PDBName=C2,ResName=ACN,ResNum=71_X)   -1	45.98300000 36.66200000 36.53500000 L
N-N_1(PDBName=N1,ResName=ACN,ResNum=71_X)   -1	46.57900000 36.09700000 37.29500000 L
C-C_3(PDBName=C1,ResName=ACN,ResNum=73_X)   -1	36.07400000 28.75600000 44.65500000 L
H-H_(PDBName=H1,ResName=ACN,ResNum=73_X)   -1	36.62400000 28.02600000 44.05700000 L
H-H_(PDBName=H2,ResName=ACN,ResNum=73_X)   -1	36.58500000 28.81400000 45.61800000 L
H-H_(PDBName=H3,ResName=ACN,ResNum=73_X)   -1	35.97900000 29.70000000 44.11400000 L
C-C_1(PDBName=C2,ResName=ACN,ResNum=73_X)   -1	34.77900000 28.24400000 44.69600000 L
N-N_1(PDBName=N1,ResName=ACN,ResNum=73_X)   -1	33.73700000 27.84200000 44.75800000 L
C-C_3(PDBName=C1,ResName=ACN,ResNum=78_X)   -1	13.62500000 34.86600000 44.64700000 L
H-H_(PDBName=H1,ResName=ACN,ResNum=78_X)   -1	12.62200000 34.54800000 44.35400000 L
H-H_(PDBName=H2,ResName=ACN,ResNum=78_X)   -1	14.11600000 35.38000000 43.81800000 L
H-H_(PDBName=H3,ResName=ACN,ResNum=78_X)   -1	13.54000000 35.53800000 45.50300000 L
C-C_1(PDBName=C2,ResName=ACN,ResNum=78_X)   -1	14.45400000 33.83100000 45.21300000 L
N-N_1(PDBName=N1,ResName=ACN,ResNum=78_X)   -1	15.15000000 33.04300000 45.53900000 L
C-C_3(PDBName=C1,ResName=ACN,ResNum=80_X)   -1	36.56400000 38.69900000 11.54400000 L
H-H_(PDBName=H1,ResName=ACN,ResNum=80_X)   -1	37.59100000 39.07200000 11.55900000 L
H-H_(PDBName=H2,ResName=ACN,ResNum=80_X)   -1	36.85100000 37.65800000 11.38200000 L
H-H_(PDBName=H3,ResName=ACN,ResNum=80_X)   -1	36.01100000 39.00300000 12.43600000 L
C-C_1(PDBName=C2,ResName=ACN,ResNum=80_X)   -1	35.87900000 39.08500000 10.35400000 L
N-N_1(PDBName=N1,ResName=ACN,ResNum=80_X)   -1	35.21600000 39.45400000 9.48900000 L
C-C_3(PDBName=C1,ResName=ACN,ResNum=81_X)   -1	26.62000000 43.28100000 42.88700000 L
H-H_(PDBName=H1,ResName=ACN,ResNum=81_X)   -1	27.60500000 43.73100000 43.02900000 L
H-H_(PDBName=H2,ResName=ACN,ResNum=81_X)   -1	26.42400000 43.04000000 41.84000000 L
H-H_(PDBName=H3,ResName=ACN,ResNum=81_X)   -1	26.53600000 42.36600000 43.47700000 L
C-C_1(PDBName=C2,ResName=ACN,ResNum=81_X)   -1	25.73900000 44.33300000 43.27100000 L
N-N_1(PDBName=N1,ResName=ACN,ResNum=81_X)   -1	25.09800000 45.28000000 43.50900000 L
C-C_3(PDBName=C1,ResName=ACN,ResNum=85_X)   -1	9.88300000 11.27900000 30.03300000 L
H-H_(PDBName=H1,ResName=ACN,ResNum=85_X)   -1	10.87400000 11.68100000 29.81400000 L
H-H_(PDBName=H2,ResName=ACN,ResNum=85_X)   -1	9.41900000 11.09200000 29.06300000 L
H-H_(PDBName=H3,ResName=ACN,ResNum=85_X)   -1	9.97000000 10.33700000 30.57900000 L
C-C_1(PDBName=C2,ResName=ACN,ResNum=85_X)   -1	9.18800000 12.20400000 30.90800000 L
N-N_1(PDBName=N1,ResName=ACN,ResNum=85_X)   -1	8.68600000 12.82500000 31.70500000 L
C-C_3(PDBName=C1,ResName=ACN,ResNum=86_X)    0	6.92600000 29.28600000 29.42400000 L
H-H_(PDBName=H1,ResName=ACN,ResNum=86_X)    0	6.01600000 29.17000000 30.01700000 L
H-H_(PDBName=H2,ResName=ACN,ResNum=86_X)    0	6.88900000 30.20600000 28.83700000 L
H-H_(PDBName=H3,ResName=ACN,ResNum=86_X)    0	7.71500000 29.52600000 30.14000000 L
C-C_1(PDBName=C2,ResName=ACN,ResNum=86_X)    0	7.07800000 28.07600000 28.56000000 L
N-N_1(PDBName=N1,ResName=ACN,ResNum=86_X)    0	7.27500000 27.12200000 27.97100000 L
C-C_3(PDBName=C1,ResName=ACN,ResNum=92_X)    0	22.62000000 24.13500000 39.02200000 L
H-H_(PDBName=H1,ResName=ACN,ResNum=92_X)    0	21.68300000 24.37000000 38.51300000 L
H-H_(PDBName=H2,ResName=ACN,ResNum=92_X)    0	23.17800000 23.49100000 38.33900000 L
H-H_(PDBName=H3,ResName=ACN,ResNum=92_X)    0	23.14600000 25.07300000 39.21400000 L
C-C_1(PDBName=C2,ResName=ACN,ResNum=92_X)    0	22.35500000 23.35700000 40.26700000 L
N-N_1(PDBName=N1,ResName=ACN,ResNum=92_X)    0	22.25000000 22.73800000 41.18700000 L
C-C_3(PDBName=C1,ResName=ACN,ResNum=93_X)   -1	20.88000000 5.11000000 20.66000000 L
H-H_(PDBName=H1,ResName=ACN,ResNum=93_X)   -1	21.21500000 5.57000000 21.59200000 L
H-H_(PDBName=H2,ResName=ACN,ResNum=93_X)   -1	20.70400000 5.97500000 20.01600000 L
H-H_(PDBName=H3,ResName=ACN,ResNum=93_X)   -1	21.60900000 4.40600000 20.25300000 L
C-C_1(PDBName=C2,ResName=ACN,ResNum=93_X)   -1	19.50700000 4.52200000 21.07600000 L
N-N_1(PDBName=N1,ResName=ACN,ResNum=93_X)   -1	18.57400000 4.02500000 21.42200000 L
C-C_3(PDBName=C1,ResName=ACN,ResNum=94_X)   -1	10.51900000 42.39300000 38.28500000 L
H-H_(PDBName=H1,ResName=ACN,ResNum=94_X)   -1	10.64100000 41.53400000 38.94800000 L
H-H_(PDBName=H2,ResName=ACN,ResNum=94_X)   -1	11.27100000 42.13900000 37.53500000 L
H-H_(PDBName=H3,ResName=ACN,ResNum=94_X)   -1	9.51500000 42.45900000 37.86200000 L
C-C_1(PDBName=C2,ResName=ACN,ResNum=94_X)   -1	10.92700000 43.68700000 38.88900000 L
N-N_1(PDBName=N1,ResName=ACN,ResNum=94_X)   -1	11.19000000 44.74700000 39.32000000 L
C-C_3(PDBName=C1,ResName=ACN,ResNum=97_X)   -1	32.75100000 11.47700000 14.32000000 L
H-H_(PDBName=H1,ResName=ACN,ResNum=97_X)   -1	33.35100000 11.67000000 13.42900000 L
H-H_(PDBName=H2,ResName=ACN,ResNum=97_X)   -1	32.66400000 12.32200000 15.00600000 L
H-H_(PDBName=H3,ResName=ACN,ResNum=97_X)   -1	31.82700000 10.99300000 13.99500000 L
C-C_1(PDBName=C2,ResName=ACN,ResNum=97_X)   -1	33.36800000 10.48900000 15.15500000 L
N-N_1(PDBName=N1,ResName=ACN,ResNum=97_X)   -1	33.94200000 9.83800000 15.87200000 L
C-C_3(PDBName=C1,ResName=ACN,ResNum=98_X)    0	26.98900000 29.17500000 18.71300000 L
H-H_(PDBName=H1,ResName=ACN,ResNum=98_X)    0	27.26100000 28.61400000 19.61000000 L
H-H_(PDBName=H2,ResName=ACN,ResNum=98_X)    0	26.30000000 28.68400000 18.02300000 L
H-H_(PDBName=H3,ResName=ACN,ResNum=98_X)    0	26.71200000 30.19000000 19.00700000 L
C-C_1(PDBName=C2,ResName=ACN,ResNum=98_X)    0	28.28600000 29.23800000 18.04800000 L
N-N_1(PDBName=N1,ResName=ACN,ResNum=98_X)    0	29.30800000 29.16800000 17.59400000 L
C-C_3(PDBName=C1,ResName=ACN,ResNum=99_X)    0	31.93600000 28.59600000 28.09700000 L
H-H_(PDBName=H1,ResName=ACN,ResNum=99_X)    0	32.07800000 28.83300000 29.15300000 L
H-H_(PDBName=H2,ResName=ACN,ResNum=99_X)    0	31.05400000 29.02400000 27.61500000 L
H-H_(PDBName=H3,ResName=ACN,ResNum=99_X)    0	32.88000000 28.77700000 27.57900000 L
C-C_1(PDBName=C2,ResName=ACN,ResNum=99_X)    0	31.65600000 27.17000000 27.92800000 L
N-N_1(PDBName=N1,ResName=ACN,ResNum=99_X)    0	31.44500000 26.08400000 27.65000000 L
C-C_3(PDBName=C1,ResName=ACN,ResNum=101_X)   -1	46.33900000 21.83000000 11.87800000 L
H-H_(PDBName=H1,ResName=ACN,ResNum=101_X)   -1	46.73100000 22.28500000 10.96600000 L
H-H_(PDBName=H2,ResName=ACN,ResNum=101_X)   -1	45.28800000 21.99800000 12.12000000 L
H-H_(PDBName=H3,ResName=ACN,ResNum=101_X)   -1	46.61100000 20.77600000 11.79300000 L
C-C_1(PDBName=C2,ResName=ACN,ResNum=101_X)   -1	47.05500000 22.35100000 13.00700000 L
N-N_1(PDBName=N1,ResName=ACN,ResNum=101_X)   -1	47.60900000 22.87100000 13.88200000 L
C-C_3(PDBName=C1,ResName=ACN,ResNum=104_X)   -1	18.80900000 43.10000000 19.83300000 L
H-H_(PDBName=H1,ResName=ACN,ResNum=104_X)   -1	18.21000000 43.32200000 18.94700000 L
H-H_(PDBName=H2,ResName=ACN,ResNum=104_X)   -1	18.37800000 42.27500000 20.40500000 L
H-H_(PDBName=H3,ResName=ACN,ResNum=104_X)   -1	19.79700000 42.70900000 19.58200000 L
C-C_1(PDBName=C2,ResName=ACN,ResNum=104_X)   -1	18.95300000 44.31300000 20.68800000 L
N-N_1(PDBName=N1,ResName=ACN,ResNum=104_X)   -1	19.07100000 45.15900000 21.43700000 L
C-C_3(PDBName=C1,ResName=ACN,ResNum=106_X)   -1	38.47700000 19.38900000 46.30500000 L
H-H_(PDBName=H1,ResName=ACN,ResNum=106_X)   -1	38.18700000 18.59900000 47.00100000 L
H-H_(PDBName=H2,ResName=ACN,ResNum=106_X)   -1	37.67200000 20.12600000 46.27300000 L
H-H_(PDBName=H3,ResName=ACN,ResNum=106_X)   -1	39.42800000 19.79100000 46.66100000 L
C-C_1(PDBName=C2,ResName=ACN,ResNum=106_X)   -1	38.61400000 18.96700000 44.95600000 L
N-N_1(PDBName=N1,ResName=ACN,ResNum=106_X)   -1	38.45000000 18.64300000 43.88900000 L