%chk=scan.chk
%mem=14GB
%nproc=8
# MP2/genecp counterpoise=2 scf=(tight,maxcycle=10000) nosymm

[0] [0]

0 1
c            3.2788623   6.0019036  -0.0461831    0
c            2.8442087   4.8781267   0.0530723    0
c            2.1086956   3.5664410   0.0091195    0
c            0.9409300   3.4283735  -0.8410118    0
c            2.5600564   2.5297023   0.7522931    0
c            0.2703827   2.2892274  -0.8445118    0
h            0.5841551   4.4972643  -1.1639233    0
c            1.8771789   1.3189301   0.7562020    0
h            3.3295864   2.7204205   1.2592031    0
c            0.6966343   1.2127599   0.0536561    0
h           -0.6286928   2.1932762  -1.4299158    0
h            2.2554308   0.6028156   1.2674894    0
n            0.0159205   0.0289257  -0.0744278    0
c            0.6594724  -1.2165978  -0.0072018    0
c            0.1962483  -2.3326049   0.7973419    0
c            1.8775061  -1.4178764  -0.6730021    0
c            0.9275264  -3.5407203   0.7313183    0
h           -0.7801131  -2.1698753   1.2559428    0
c            2.6330856  -2.5689938  -0.7235629    0
h            2.0511801  -0.5491621  -1.2807021    0
c            2.0995206  -3.6455095   0.0515569    0
c            2.7876103  -4.8727073   0.0226033    0
h            3.6065846  -2.6145479  -1.1612325    0
c            3.4300140  -5.9407022   0.0608016    0
c           -1.4064874   0.1005996  -0.0953817    0
c           -2.1456871   0.8262561   0.8440792    0
c           -2.1313215  -0.7259180  -0.9617149    0
c           -3.5019491   0.8107799   0.9195783    0
h           -1.5080056   1.5793747   1.4371170    0
c           -3.4851573  -0.7369134  -0.9185114    0
h           -1.4484759  -1.3640929  -1.6878557    0
c           -4.1886881   0.0272196   0.0750079    0
h           -4.0181331   1.5002496   1.5956128    0
h           -3.8234527  -1.3761361  -1.5469344    0
c           -5.5805052   0.0092818   0.0455817    0
c           -6.7851463  -0.0705231   0.0627439    0
h            0.5178495  -4.5332111   1.1482626    0
h            3.8280427   6.7490957  -0.2336375    0
h            4.0412436  -6.8118557  -0.0311984    0
h           -7.7873907   0.0020809   0.1302508    0

@B2a.gbs/N
