%chk=dmphen.chk
%mem=48GB
%nprocshared=20
# m062x/6-31g* scf=(xqc,maxcycle=10000) counterpoise=3 pop=full 

Title Card Required

1 1 1 1 0 1 0 1
 C(Fragment=2)      2.69775000   -2.43961100    2.43951700
 C(Fragment=2)      3.92156400   -1.99627900    1.99606800
 C(Fragment=2)      3.98315200   -1.00000100    0.99984400
 C(Fragment=2)      2.75850200   -0.51112600    0.51113800
 C(Fragment=2)      1.51632200   -1.89332700    1.89339600
 C(Fragment=2)      5.21691800   -0.47955800    0.47930500
 C(Fragment=2)      2.75836100    0.51137300   -0.51128400
 C(Fragment=2)      3.98287900    1.00027600   -1.00029700
 C(Fragment=2)      5.21678800    0.47986700   -0.48006100
 C(Fragment=2)      3.92101600    1.99655500   -1.99650300
 H(Fragment=2)      4.84165800    2.40451100   -2.40453900
 C(Fragment=2)      2.69707900    2.43986800   -2.43963500
 C(Fragment=2)      1.51580200    1.89356100   -1.89321100
 H(Fragment=2)      6.14997600   -0.87231500    0.87194000
 H(Fragment=2)      2.62407900   -3.20468300    3.20456000
 H(Fragment=2)      4.84231800   -2.40420800    2.40387700
 H(Fragment=2)      6.14974000    0.87265400   -0.87291700
 H(Fragment=2)      2.62319800    3.20494500   -3.20465100
 Cu(Fragment=1)     0.00000000    0.00000900    0.00023300
 C(Fragment=3)     -2.75836600   -0.51135200   -0.51125700
 C(Fragment=3)     -1.51582000   -1.89344700   -1.89328900
 C(Fragment=3)     -3.98288900   -1.00026100   -1.00025200
 C(Fragment=3)     -2.75849700    0.51109500    0.51121800
 C(Fragment=3)     -2.69710300   -2.43976500   -2.43969000
 C(Fragment=3)     -3.92103600   -1.99649700   -1.99650100
 C(Fragment=3)     -5.21679200   -0.47990300   -0.47995200
 C(Fragment=3)     -3.98314200    0.99992300    0.99998300
 H(Fragment=3)     -2.62323000   -3.20481300   -3.20473600
 H(Fragment=3)     -4.84168200   -2.40445800   -2.40452200
 C(Fragment=3)     -5.21691400    0.47948100    0.47945400
 H(Fragment=3)     -6.14974800   -0.87268800   -0.87280100
 C(Fragment=3)     -3.92154500    1.99616000    1.99624600
 C(Fragment=3)     -1.51630300    1.89326500    1.89349500
 H(Fragment=3)     -6.14996800    0.87220200    0.87213500
 H(Fragment=3)     -4.84229400    2.40405700    2.40409800
 C(Fragment=3)     -2.69772600    2.43950600    2.43967000
 H(Fragment=3)     -2.62404700    3.20455500    3.20473500
 N(Fragment=3)     -1.55736600   -0.95524700   -0.95508100
 N(Fragment=2)      1.55735700    0.95532300   -0.95504100
 N(Fragment=3)     -1.55761000    0.95506300    0.95527700
 N(Fragment=2)      1.55761900   -0.95509200    0.95521200
 C(Fragment=3)     -0.15285800    2.33840900    2.33872300
 H(Fragment=3)      0.41010300    1.48475800    2.73229600
 H(Fragment=3)      0.41015500    2.73201000    1.48511900
 H(Fragment=3)     -0.20906600    3.10908700    3.10944500
 C(Fragment=3)     -0.15226400   -2.33850300   -2.33826600
 H(Fragment=3)      0.41067500   -1.48483800   -2.73184100
 H(Fragment=3)      0.41066000   -2.73197000   -1.48454300
 H(Fragment=3)     -0.20828300   -3.10926000   -3.10892400
 C(Fragment=2)      0.15224000    2.33865300   -2.33813600
 H(Fragment=2)     -0.41062100    1.48506000   -2.73198200
 H(Fragment=2)     -0.41075600    2.73184000   -1.48433300
 H(Fragment=2)      0.20825000    3.10962100   -3.10858300
 C(Fragment=2)      0.15288200   -2.33846600    2.33864600
 H(Fragment=2)     -0.41009300   -1.48480400    2.73217300
 H(Fragment=2)     -0.41012300   -2.73212100    1.48506100
 H(Fragment=2)      0.20910000   -3.10910700    3.10940500


 