%chk=gaussian.chk
%mem=1GB
%nproc=2
# force b3lyp/6-31G** scf=(tight,maxcycle=10000) iop(9/40=20) nosymm 

[0] [0]

1   1   
c           -5.5338175   0.7125130   0.4057093
n           -1.4757217   0.1805686   0.1102563
h           -6.1187275   1.6438646   2.2895698
h           -6.6370856  -0.4341665  -1.0859286
h           -0.8548232  -0.9878324  -1.3343232
h           -0.4005556   0.8548868   1.6017769


