%chk=scan.chk
%mem=14GB
%nprocshared=8
# MP2/genecp counterpoise=2 scf=(tight,maxcycle=10000) nosymm

[0] [0]

0 1
    C    2.607583   -1.063450   -0.572712    1
    C    4.002743   -1.063137   -0.572803    1
    C    4.700080    0.000104    0.000311    1
    C    4.002225    1.064269    0.572821    1
    C    2.607400    1.064115    0.572454    1
    C    1.910000    0.000000    0.000000    1
    H    2.057983   -1.902034   -1.024219    1
    H    4.552410   -1.902058   -1.023713    1
    H    5.799760    0.000120    0.000836    1
    H    4.552267    1.902515    1.024590    1
    H    2.057120    1.902660    1.023573    1
   Br    0.000000    0.000000    0.000000    1
    C   -3.727317   -0.000000    0.000000    2
    O   -2.500000    0.000000    0.000000    2
    H   -4.319462    0.826873    0.445826    2
    H   -4.319462   -0.826892   -0.445791    2

@B2a.gbs/N




