%chk=oniom.chk
%mem=1GB
#p ONIOM(b3lyp/6-31g(d,p) td(singlet,nstates=3,root=1):uff)=(embed,inputfiles) nosymm geom=connectivity pop=full iop(9/40=20)

ch2nh2

0 1 0 1 0 1
 O-O_3--0.834000  0   -0.36870503   -2.19424457    0.00000000 H
 H-H_-0.417000    0    0.59129497   -2.19424457    0.00000000 H
 H-H_-0.417000    0   -0.68915962   -1.28930874    0.00000000 H
 O-O_3--0.834000  0   -2.34712227    0.34172661    0.00000000 M
 H-H_-0.417000    0   -1.38712227    0.34172661    0.00000000 M
 H-H_-0.417000    0   -2.66757686    1.24666244    0.00000000 M

 1 2 1.0 3 1.0
 2
 3
 4 5 1.0 6 1.0
 5
 6


