%chk=h2o.chk
# force td(singlet,nstates=3,root=1) oniom(b3lyp/6-31g(d):uff)=embed geom=connectivity

Title Card Required

1 2 1 2 0 1
 O-O_3--0.834000  0    1.95331702    1.80589678    0.00000000 H
 H-H_-0.417000    0    2.91331702    1.80589678    0.00000000 H
 H-H_-0.417000    0    1.63286243    2.71083261    0.00000000 H
 O-O_3--0.834000  0   -0.82934594    1.68460960   -0.85549805 L
 H-H_-0.417000    0    0.13065406    1.68460960   -0.85549805 L
 H-H_-0.417000    0   -1.14980053    2.58954543   -0.85549805 L

 1 2 1.0 3 1.0
 2
 3
 4 5 1.0 6 1.0
 5
 6

