%chk=gaussian.chk
%mem=1GB
# td(singlet,nstates=3,root=1) oniom(b3lyp/6-31g(d,p):uff)=embed nosymm geom=connectivity

ch2nh2

1 1 1 1 0 1 
 N-N_2            0   -3.91983642    1.74252582   -0.19144495 H
 C-C_2            0   -2.80887592    1.08729284   -0.29062899 H
 H-H_             0   -4.78505229    1.29768271   -0.42278042 H
 H-H_             0   -3.91343348    2.69388816    0.11656269 H
 H-H_             0   -2.81572695    0.06933552   -0.62019835 H
 H-H_             0   -1.88309494    1.56327495   -0.04309998 H
 O-O_3            0   -4.57553897    0.45326638   -1.75911783 L
 H-H_             0   -3.61553900    0.45350748   -1.75911783 L
 H-H_             0   -4.89576627    1.35828266   -1.75911783 L
 O-O_3            0   -5.66762252    3.59541149    0.33688841 L
 H-H_             0   -4.70762255    3.59565259    0.33688841 L
 H-H_             0   -5.98784982    4.50042777    0.33688841 L
 O-O_3            0   -1.62148191    2.92880298    1.99349318 L
 H-H_             0   -0.66148194    2.92904408    1.99349318 L
 H-H_             0   -1.94170921    3.83381926    1.99349318 L
 O-O_3            0   -2.20700249   -0.51566041    1.45941022 L
 H-H_             0   -1.24700252   -0.51541931    1.45941022 L
 H-H_             0   -2.52722979    0.38935587    1.45941022 L

 1 3 1.0 4 1.0 2 2.0
 2 5 1.0 6 1.0
 3
 4
 5
 6
 7 8 1.0 9 1.0
 8
 9
 10 11 1.0 12 1.0
 11
 12
 13 14 1.0 15 1.0
 14
 15
 16 17 1.0 18 1.0
 17
 18

