#n B3LYP/6-31G(d) nosymm iop(2/12=3,3/33=1) guess=only pop=full

 ch2nh2

1 1
N         -4.42461        2.03755        0.00000
C         -2.46682        0.54857        0.00000
H         -4.67735        2.26769       -0.96102
H         -4.22139        2.88810        0.52504
H         -2.69299       -0.33883       -0.55341
H         -1.64286        1.05092       -0.46220


