%chk=h2o3.chk
# oniom(td/b3lyp/6-31g(d):pm6:uff)=(embed,onlyinputfiles) geom=connectivity

Title Card Required

0 1 0 1 0 1 0 1 0 1 0 1
 O-O_3--0.834000  0   -2.86580727    1.39267837    0.00000000 H
 H-H_-0.417000    0   -1.90580730    1.39291947    0.00000000 H
 H-H_-0.417000    0   -3.18603457    2.29769465    0.00000000 H
 O-O_3--0.834000  0   -2.02356595    3.11642139    2.10449108 M
 H-H_-0.417000    0   -1.06356598    3.11666249    2.10449108 M
 H-H_-0.417000    0   -2.34379325    4.02143767    2.10449108 M
 O-O_3--0.834000  0   -3.12199382    4.08526776    0.24124313 L
 H-H_-0.417000    0   -2.16199385    4.08550887    0.24124313 L
 H-H_-0.417000    0   -3.44222112    4.99028405    0.24124313 L

 1 2 1.0 3 1.0
 2
 3
 4 5 1.0 6 1.0
 5
 6
 7 8 1.0 9 1.0
 8
 9

