 #P B3LYP/6-31G(D,P) TD(SINGLET,NSTATES=3,ROOT=1) 

 ch2nh2
 Point  2 -- high level on model system.

 0,1
  O                                 -0.368705030000     -2.194244570000      0.000000000000
  H                                  0.591294970000     -2.194244570000      0.000000000000
  H                                 -0.689159620000     -1.289308740000      0.000000000000



