 #P force Test IOp(2/15=1,5/32=2,5/38=1) PM6

 ch2nh2 iop(9/40=20)
 Point  1 -- low level on model system.

 0,1
  O-O_3--0.834000                                  -0.368705030000     -2.194244570000      0.000000000000
  H-H_-0.417000                                     0.591294970000     -2.194244570000      0.000000000000
  H-H_-0.417000                                    -0.689159620000     -1.289308740000      0.000000000000
  O-#6--0.834000                                   -2.347122270000      0.341726610000      0.000000000000
  H-#6-0.417000                                    -1.387122270000      0.341726610000      0.000000000000
  H-#6-0.417000                                    -2.667576860000      1.246662440000      0.000000000000

 1 2 1.000 3 1.000
 2 1 1.000
 3 1 1.000
 4 5 1.000 6 1.000
 5 4 1.000
 6 4 1.000


