%chk=qm.chk
%mem=1GB
# force td=(nstates=3,root=1,singlet) nosymm geom=connectivity

ch2nh2

1 1
 N-N_2             -3.91983642    1.74252582   -0.19144495
 C-C_2             -2.80887592    1.08729284   -0.29062899
 H-H_              -4.78505229    1.29768271   -0.42278042
 H-H_              -3.91343348    2.69388816    0.11656269
 H-H_              -2.81572695    0.06933552   -0.62019835
 H-H_              -1.88309494    1.56327495   -0.04309998

 1 3 1.0 4 1.0 2 2.0
 2 5 1.0 6 1.0
 3
 4
 5
 6


