%chk=t.chk
%mem=1GB
%nproc=2
%nproclinda=1
#p hf/6-31G** iop(2/12=3,3/33=1) guess=only pop=full

ch2nh2

0 1 
 O   -0.36870503   -2.19424457    0.00000000 
 H    0.59129497   -2.19424457    0.00000000 
 H   -0.68915962   -1.28930874    0.00000000 


